
     Program PWSCF v.7.5 starts on  3Sep2026 at 19:33:15 

     This program is part of the open-source Quantum ESPRESSO suite
     for quantum simulation of materials; please cite
         "P. Giannozzi et al., J. Phys.:Condens. Matter 21 395502 (2009);
         "P. Giannozzi et al., J. Phys.:Condens. Matter 29 465901 (2017);
         "P. Giannozzi et al., J. Chem. Phys. 152 154105 (2020);
          URL http://www.quantum-espresso.org", 
     in publications or presentations arising from this work. More details at
     http://www.quantum-espresso.org/quote

     Parallel version (MPI & OpenMP), running on       4 processor cores
     Number of MPI processes:                 4
     Threads/MPI process:                     1

     MPI processes distributed on     1 nodes
     7084 MiB available memory on the printing compute node when the environment starts

     Reading input from espresso.pwi
Warning: card &CELL ignored
Warning: card &FCP ignored
Warning: card &RISM ignored

     Current dimensions of program PWSCF are:
     Max number of different atomic species (ntypx) = 10
     Max number of k-points (npk) =  40000
     Max angular momentum in pseudopotentials (lmaxx) =  4
     file C.upf: wavefunction(s)  2S 2P renormalized
     Message from routine setup:
     using ibrav=0 with symmetry is DISCOURAGED, use correct ibrav instead

     R & G space division:  proc/nbgrp/npool/nimage =       4
     Subspace diagonalization in iterative solution of the eigenvalue problem:
     a serial algorithm will be used


     Parallelization info
     --------------------
     sticks:   dense  smooth     PW     G-vecs:    dense   smooth      PW
     Min         148     148     44                18002    18002    2885
     Max         149     149     49                18019    18019    2886
     Sum         595     595    187                72043    72043   11541

     Using Slab Decomposition



     bravais-lattice index     =            0
     lattice parameter (alat)  =       4.6607  a.u.
     unit-cell volume          =     533.2351 (a.u.)^3
     number of atoms/cell      =            2
     number of atomic types    =            1
     number of electrons       =         8.00
     number of Kohn-Sham states=            8
     kinetic-energy cutoff     =     100.0000  Ry
     charge density cutoff     =     400.0000  Ry
     scf convergence threshold =      1.0E-10
     mixing beta               =       0.7000
     number of iterations used =            8  plain     mixing
     Exchange-correlation= SLA  PW   PBX  PBC
                           (   1   4   3   4   0   0   0)

     celldm(1)=   4.660677  celldm(2)=   0.000000  celldm(3)=   0.000000
     celldm(4)=   0.000000  celldm(5)=   0.000000  celldm(6)=   0.000000

     crystal axes: (cart. coord. in units of alat)
               a(1) = (   1.000000   0.000000   0.000000 )  
               a(2) = (  -0.500000   0.866025   0.000000 )  
               a(3) = (   0.000000   0.000000   6.081926 )  

     reciprocal axes: (cart. coord. in units 2 pi/alat)
               b(1) = (  1.000000  0.577350 -0.000000 )  
               b(2) = (  0.000000  1.154701  0.000000 )  
               b(3) = (  0.000000 -0.000000  0.164422 )  


     PseudoPot. # 1 for C  read from file:
     ./C.upf
     MD5 check sum: 5d2aebdfa2cae82b50a7e79e9516da0f
     Pseudo is Projector augmented-wave + core cor, Zval =  4.0
     Generated using "atomic" code by A. Dal Corso  v.5.1
     Shape of augmentation charge: PSQ
     Using radial grid of 1073 points,  4 beta functions with: 
                l(1) =   0
                l(2) =   0
                l(3) =   1
                l(4) =   1
     Q(r) pseudized with 0 coefficients 


     atomic species   valence    mass     pseudopotential
     C                 4.00    12.01100     C ( 1.00)

     24 Sym. Ops., with inversion, found (12 have fractional translation)



   Cartesian axes

     site n.     atom                  positions (alat units)
         1        C      tau(   1) = (   0.0000000   0.0000000   3.0409630  )
         2        C      tau(   2) = (   0.0000000   0.5773503   3.0409630  )

     number of k points=    75  Gaussian smearing, width (Ry)=  0.0100
                       cart. coord. in units 2pi/alat
        k(    1) = (   0.0000000   0.0000000   0.0000000), wk =   0.0027435
        k(    2) = (   0.0000000   0.0427667   0.0000000), wk =   0.0164609
        k(    3) = (   0.0000000   0.0855334   0.0000000), wk =   0.0164609
        k(    4) = (   0.0000000   0.1283001   0.0000000), wk =   0.0164609
        k(    5) = (   0.0000000   0.1710667   0.0000000), wk =   0.0164609
        k(    6) = (   0.0000000   0.2138334   0.0000000), wk =   0.0164609
        k(    7) = (   0.0000000   0.2566001   0.0000000), wk =   0.0164609
        k(    8) = (   0.0000000   0.2993668   0.0000000), wk =   0.0164609
        k(    9) = (   0.0000000   0.3421335   0.0000000), wk =   0.0164609
        k(   10) = (   0.0000000   0.3849002   0.0000000), wk =   0.0164609
        k(   11) = (   0.0000000   0.4276669   0.0000000), wk =   0.0164609
        k(   12) = (   0.0000000   0.4704336   0.0000000), wk =   0.0164609
        k(   13) = (   0.0000000   0.5132002   0.0000000), wk =   0.0164609
        k(   14) = (   0.0000000   0.5559669   0.0000000), wk =   0.0164609
        k(   15) = (   0.0370370   0.0641500   0.0000000), wk =   0.0164609
        k(   16) = (   0.0370370   0.1069167   0.0000000), wk =   0.0329218
        k(   17) = (   0.0370370   0.1496834   0.0000000), wk =   0.0329218
        k(   18) = (   0.0370370   0.1924501   0.0000000), wk =   0.0329218
        k(   19) = (   0.0370370   0.2352168   0.0000000), wk =   0.0329218
        k(   20) = (   0.0370370   0.2779835   0.0000000), wk =   0.0329218
        k(   21) = (   0.0370370   0.3207501   0.0000000), wk =   0.0329218
        k(   22) = (   0.0370370   0.3635168   0.0000000), wk =   0.0329218
        k(   23) = (   0.0370370   0.4062835   0.0000000), wk =   0.0329218
        k(   24) = (   0.0370370   0.4490502   0.0000000), wk =   0.0329218
        k(   25) = (   0.0370370   0.4918169   0.0000000), wk =   0.0329218
        k(   26) = (   0.0370370   0.5345836   0.0000000), wk =   0.0329218
        k(   27) = (   0.0370370   0.5773503   0.0000000), wk =   0.0164609
        k(   28) = (   0.0740741   0.1283001   0.0000000), wk =   0.0164609
        k(   29) = (   0.0740741   0.1710667   0.0000000), wk =   0.0329218
        k(   30) = (   0.0740741   0.2138334   0.0000000), wk =   0.0329218
        k(   31) = (   0.0740741   0.2566001   0.0000000), wk =   0.0329218
        k(   32) = (   0.0740741   0.2993668   0.0000000), wk =   0.0329218
        k(   33) = (   0.0740741   0.3421335   0.0000000), wk =   0.0329218
        k(   34) = (   0.0740741   0.3849002   0.0000000), wk =   0.0329218
        k(   35) = (   0.0740741   0.4276669   0.0000000), wk =   0.0329218
        k(   36) = (   0.0740741   0.4704336   0.0000000), wk =   0.0329218
        k(   37) = (   0.0740741   0.5132002   0.0000000), wk =   0.0329218
        k(   38) = (   0.0740741   0.5559669   0.0000000), wk =   0.0329218
        k(   39) = (   0.1111111   0.1924501   0.0000000), wk =   0.0164609
        k(   40) = (   0.1111111   0.2352168   0.0000000), wk =   0.0329218
        k(   41) = (   0.1111111   0.2779835   0.0000000), wk =   0.0329218
        k(   42) = (   0.1111111   0.3207501   0.0000000), wk =   0.0329218
        k(   43) = (   0.1111111   0.3635168   0.0000000), wk =   0.0329218
        k(   44) = (   0.1111111   0.4062835   0.0000000), wk =   0.0329218
        k(   45) = (   0.1111111   0.4490502   0.0000000), wk =   0.0329218
        k(   46) = (   0.1111111   0.4918169   0.0000000), wk =   0.0329218
        k(   47) = (   0.1111111   0.5345836   0.0000000), wk =   0.0329218
        k(   48) = (   0.1111111   0.5773503   0.0000000), wk =   0.0164609
        k(   49) = (   0.1481481   0.2566001   0.0000000), wk =   0.0164609
        k(   50) = (   0.1481481   0.2993668   0.0000000), wk =   0.0329218
        k(   51) = (   0.1481481   0.3421335   0.0000000), wk =   0.0329218
        k(   52) = (   0.1481481   0.3849002   0.0000000), wk =   0.0329218
        k(   53) = (   0.1481481   0.4276669   0.0000000), wk =   0.0329218
        k(   54) = (   0.1481481   0.4704336   0.0000000), wk =   0.0329218
        k(   55) = (   0.1481481   0.5132002   0.0000000), wk =   0.0329218
        k(   56) = (   0.1481481   0.5559669   0.0000000), wk =   0.0329218
        k(   57) = (   0.1851852   0.3207501   0.0000000), wk =   0.0164609
        k(   58) = (   0.1851852   0.3635168   0.0000000), wk =   0.0329218
        k(   59) = (   0.1851852   0.4062835   0.0000000), wk =   0.0329218
        k(   60) = (   0.1851852   0.4490502   0.0000000), wk =   0.0329218
        k(   61) = (   0.1851852   0.4918169   0.0000000), wk =   0.0329218
        k(   62) = (   0.1851852   0.5345836   0.0000000), wk =   0.0329218
        k(   63) = (   0.1851852   0.5773503   0.0000000), wk =   0.0164609
        k(   64) = (   0.2222222   0.3849002   0.0000000), wk =   0.0164609
        k(   65) = (   0.2222222   0.4276669   0.0000000), wk =   0.0329218
        k(   66) = (   0.2222222   0.4704336   0.0000000), wk =   0.0329218
        k(   67) = (   0.2222222   0.5132002   0.0000000), wk =   0.0329218
        k(   68) = (   0.2222222   0.5559669   0.0000000), wk =   0.0329218
        k(   69) = (   0.2592593   0.4490502   0.0000000), wk =   0.0164609
        k(   70) = (   0.2592593   0.4918169   0.0000000), wk =   0.0329218
        k(   71) = (   0.2592593   0.5345836   0.0000000), wk =   0.0329218
        k(   72) = (   0.2592593   0.5773503   0.0000000), wk =   0.0164609
        k(   73) = (   0.2962963   0.5132002   0.0000000), wk =   0.0164609
        k(   74) = (   0.2962963   0.5559669   0.0000000), wk =   0.0329218
        k(   75) = (   0.3333333   0.5773503   0.0000000), wk =   0.0054870

     Dense  grid:    72043 G-vectors     FFT dimensions: (  30,  30, 192)

     Estimated max dynamical RAM per process >      21.07 MB

     Estimated total dynamical RAM >      84.30 MB
 ----2D----2D----2D----2D----2D----2D----2D----2D----2D----2D----2D----2D
  The code is running with the 2D cutoff
  Please refer to:
  Sohier, T., Calandra, M., & Mauri, F. (2017), 
  Density functional perturbation theory for gated two-dimensional heterostructures:
  Theoretical developments and application to flexural phonons in graphene.
  Physical Review B, 96(7), 75448. https://doi.org/10.1103/PhysRevB.96.075448
 ----2D----2D----2D----2D----2D----2D----2D----2D----2D----2D----2D----2D

     Check: negative core charge=   -0.000003

     Initial potential from superposition of free atoms

     starting charge       7.9999, renormalised to       8.0000

     negative rho (up, down):  6.831E-05 0.000E+00
     Starting wfcs are    8 randomized atomic wfcs
     Checking if some PAW data can be deallocated... 

     total cpu time spent up to now is        2.2 secs

     per-process dynamical memory:    18.8 Mb

     Self-consistent Calculation

     iteration #  1     ecut=   100.00 Ry     beta= 0.70
     Davidson diagonalization with overlap
     ethr =  1.00E-02,  avg # of iterations =  5.9

     negative rho (up, down):  6.593E-05 0.000E+00

     total cpu time spent up to now is        8.4 secs

     total energy              =     -36.86271980 Ry
     estimated scf accuracy    <       0.18897058 Ry

     iteration #  2     ecut=   100.00 Ry     beta= 0.70
     Davidson diagonalization with overlap
     ethr =  2.36E-03,  avg # of iterations =  3.6

     negative rho (up, down):  7.871E-05 0.000E+00

     total cpu time spent up to now is       12.7 secs

     total energy              =     -36.88774289 Ry
     estimated scf accuracy    <       0.00191947 Ry

     iteration #  3     ecut=   100.00 Ry     beta= 0.70
     Davidson diagonalization with overlap
     ethr =  2.40E-05,  avg # of iterations =  8.8

     negative rho (up, down):  8.912E-05 0.000E+00

     total cpu time spent up to now is       20.5 secs

     total energy              =     -36.88808008 Ry
     estimated scf accuracy    <       0.00015585 Ry

     iteration #  4     ecut=   100.00 Ry     beta= 0.70
     Davidson diagonalization with overlap
     ethr =  1.95E-06,  avg # of iterations =  4.5

     negative rho (up, down):  9.014E-05 0.000E+00

     total cpu time spent up to now is       25.3 secs

     total energy              =     -36.88809515 Ry
     estimated scf accuracy    <       0.00000258 Ry

     iteration #  5     ecut=   100.00 Ry     beta= 0.70
     Davidson diagonalization with overlap
     ethr =  3.23E-08,  avg # of iterations =  3.0

     negative rho (up, down):  9.017E-05 0.000E+00

     total cpu time spent up to now is       30.3 secs

     total energy              =     -36.88809654 Ry
     estimated scf accuracy    <       0.00000011 Ry

     iteration #  6     ecut=   100.00 Ry     beta= 0.70
     Davidson diagonalization with overlap
     ethr =  1.32E-09,  avg # of iterations =  2.5

     negative rho (up, down):  9.018E-05 0.000E+00

     total cpu time spent up to now is       35.9 secs

     total energy              =     -36.88809658 Ry
     estimated scf accuracy    <          1.1E-09 Ry

     iteration #  7     ecut=   100.00 Ry     beta= 0.70
     Davidson diagonalization with overlap
     ethr =  1.33E-11,  avg # of iterations =  3.4

     negative rho (up, down):  9.017E-05 0.000E+00

     total cpu time spent up to now is       41.2 secs

     End of self-consistent calculation

          k = 0.0000 0.0000 0.0000 (  9073 PWs)   bands (ev):

   -23.7682 -11.8629  -7.2972  -7.2972  -1.0037  -0.1729   1.4279   2.3742

          k = 0.0000 0.0428 0.0000 (  9059 PWs)   bands (ev):

   -23.7358 -11.8242  -7.4313  -7.3680  -0.9597  -0.1284   1.4721   2.4181

          k = 0.0000 0.0855 0.0000 (  9059 PWs)   bands (ev):

   -23.6387 -11.7081  -7.8170  -7.5685  -0.8277   0.0049   1.6047   2.5500

          k = 0.0000 0.1283 0.0000 (  9041 PWs)   bands (ev):

   -23.4771 -11.5152  -8.4124  -7.8690  -0.6078   0.2269   1.8258   2.7690

          k = 0.0000 0.1711 0.0000 (  9047 PWs)   bands (ev):

   -23.2514 -11.2467  -9.1660  -8.2331  -0.2999   0.5372   2.1351   3.0747

          k = 0.0000 0.2138 0.0000 (  9035 PWs)   bands (ev):

   -22.9620 -10.9041 -10.0288  -8.6268   0.0958   0.9353   2.5320   3.4633

          k = 0.0000 0.2566 0.0000 (  9029 PWs)   bands (ev):

   -22.6097 -10.9605 -10.4900  -9.0227   0.5788   1.4186   3.0136   3.6941

          k = 0.0000 0.2994 0.0000 (  9019 PWs)   bands (ev):

   -22.1954 -11.9296 -10.0081  -9.3998   1.1487   1.9681   2.7750   3.5432

          k = 0.0000 0.3421 0.0000 (  9007 PWs)   bands (ev):

   -21.7204 -12.9118  -9.7431  -9.4641   1.6784   1.8041   2.7031   3.6011

          k = 0.0000 0.3849 0.0000 (  9017 PWs)   bands (ev):

   -21.1867 -13.8886 -10.0418  -8.8677   0.6663   2.5407   3.4332   3.4794

          k = 0.0000 0.4277 0.0000 (  9009 PWs)   bands (ev):

   -20.5973 -14.8447 -10.2882  -8.2353  -0.3314   3.2444   3.4855   4.2638

          k = 0.0000 0.4704 0.0000 (  9001 PWs)   bands (ev):

   -19.9581 -15.7656 -10.4771  -7.5995  -1.2548   3.2359   4.3105   5.1795

          k = 0.0000 0.5132 0.0000 (  8988 PWs)   bands (ev):

   -19.2855 -16.6290 -10.6048  -7.0277  -2.0243   3.1759   5.2965   6.1745

          k = 0.0000 0.5560 0.0000 (  8976 PWs)   bands (ev):

   -18.6660 -17.3448 -10.6692  -6.6562  -2.4964   3.1438   6.3602   7.2365

          k = 0.0370 0.0642 0.0000 (  9067 PWs)   bands (ev):

   -23.6711 -11.7467  -7.6853  -7.5096  -0.8717  -0.0396   1.5605   2.5059

          k = 0.0370 0.1069 0.0000 (  9045 PWs)   bands (ev):

   -23.5417 -11.5923  -8.1619  -7.7742  -0.6957   0.1381   1.7374   2.6814

          k = 0.0370 0.1497 0.0000 (  9043 PWs)   bands (ev):

   -23.3481 -11.3615  -8.8211  -8.1221  -0.4318   0.4043   2.0027   2.9441

          k = 0.0370 0.1925 0.0000 (  9055 PWs)   bands (ev):

   -23.0905 -11.0559  -9.6162  -8.5145  -0.0799   0.7586   2.3562   3.2922

          k = 0.0370 0.2352 0.0000 (  9032 PWs)   bands (ev):

   -22.7696 -10.6774 -10.5034  -8.9197   0.3595   1.1999   2.7967   3.7106

          k = 0.0370 0.2780 0.0000 (  9027 PWs)   bands (ev):

   -22.3863 -11.4465 -10.2291  -9.3137   0.8861   1.7227   3.2122   3.3184

          k = 0.0370 0.3208 0.0000 (  9011 PWs)   bands (ev):

   -21.9417 -12.4170  -9.7156  -9.6792   1.4992   2.0915   2.4640   3.7663

          k = 0.0370 0.3635 0.0000 (  9040 PWs)   bands (ev):

   -21.4373 -13.3930 -10.0038  -9.1441   1.1545   2.1968   3.0821   3.6830

          k = 0.0370 0.4063 0.0000 (  9010 PWs)   bands (ev):

   -20.8755 -14.3571 -10.2787  -8.5271   0.1462   2.9689   3.5723   3.8670

          k = 0.0370 0.4491 0.0000 (  8999 PWs)   bands (ev):

   -20.2606 -15.2947 -10.4979  -7.8874  -0.8172   3.4106   3.8933   4.7400

          k = 0.0370 0.4918 0.0000 (  8984 PWs)   bands (ev):

   -19.6017 -16.1888 -10.6571  -7.2712  -1.6739   3.3500   4.8249   5.6943

          k = 0.0370 0.5346 0.0000 (  8971 PWs)   bands (ev):

   -18.9329 -17.0005 -10.7537  -6.7764  -2.3165   3.3031   5.8510   6.7215

          k = 0.0370 0.5774 0.0000 (  8970 PWs)   bands (ev):

   -18.5101 -17.4714 -10.7861  -6.5737  -2.5691   3.2869   6.8786   7.0311

          k = 0.0741 0.1283 0.0000 (  9023 PWs)   bands (ev):

   -23.3803 -11.3999  -8.6772  -8.1116  -0.4757   0.3600   1.9587   2.9006

          k = 0.0741 0.1711 0.0000 (  9048 PWs)   bands (ev):

   -23.1548 -11.1320  -9.3426  -8.5238  -0.1677   0.6702   2.2685   3.2061

          k = 0.0741 0.2138 0.0000 (  9039 PWs)   bands (ev):

   -22.8658 -10.7903 -10.1309  -8.9595   0.2281   1.0682   2.6664   3.5956

          k = 0.0741 0.2566 0.0000 (  9032 PWs)   bands (ev):

   -22.5139 -11.0066 -10.3772  -9.3862   0.7113   1.5518   3.1511   3.5475

          k = 0.0741 0.2994 0.0000 (  9032 PWs)   bands (ev):

   -22.1003 -11.9355  -9.8965  -9.7846   1.2814   2.0976   2.6298   3.7155

          k = 0.0741 0.3421 0.0000 (  9032 PWs)   bands (ev):

   -21.6262 -12.8894 -10.1420  -9.3537   1.5826   1.9375   2.8142   4.1327

          k = 0.0741 0.3849 0.0000 (  9024 PWs)   bands (ev):

   -21.0935 -13.8460 -10.4498  -8.7583   0.5894   2.6774   3.5522   4.0400

          k = 0.0741 0.4277 0.0000 (  9010 PWs)   bands (ev):

   -20.5055 -14.7877 -10.7020  -8.1263  -0.3866   3.4859   3.9453   4.3805

          k = 0.0741 0.4704 0.0000 (  8991 PWs)   bands (ev):

   -19.8682 -15.6982 -10.8943  -7.4895  -1.2944   3.8021   4.4455   5.2900

          k = 0.0741 0.5132 0.0000 (  8981 PWs)   bands (ev):

   -19.1981 -16.5539 -11.0241  -6.9146  -2.0561   3.7481   5.4232   6.2723

          k = 0.0741 0.5560 0.0000 (  8966 PWs)   bands (ev):

   -18.5817 -17.2641 -11.0893  -6.5387  -2.5271   3.7165   6.4814   7.3012

          k = 0.1111 0.1925 0.0000 (  9037 PWs)   bands (ev):

   -22.8979 -10.8280  -9.9686  -9.0121   0.1843   1.0243   2.6228   3.5545

          k = 0.1111 0.2352 0.0000 (  9047 PWs)   bands (ev):

   -22.5779 -10.7016 -10.4515  -9.5136   0.6239   1.4655   3.0654   3.7400

          k = 0.1111 0.2780 0.0000 (  9040 PWs)   bands (ev):

   -22.1957 -11.5278 -10.0055  -9.9804   1.1507   1.9896   2.8680   3.5949

          k = 0.1111 0.3208 0.0000 (  9024 PWs)   bands (ev):

   -21.7525 -12.4168 -10.3941  -9.4945   1.7641   1.9138   2.6277   4.2055

          k = 0.1111 0.3635 0.0000 (  9008 PWs)   bands (ev):

   -21.2500 -13.3371 -10.7492  -8.9255   0.9613   2.4630   3.3209   4.7086

          k = 0.1111 0.4063 0.0000 (  8992 PWs)   bands (ev):

   -20.6908 -14.2628 -11.0431  -8.3102   0.0022   3.2451   4.1037   4.6360

          k = 0.1111 0.4491 0.0000 (  8995 PWs)   bands (ev):

   -20.0791 -15.1735 -11.2739  -7.6703  -0.9217   4.0962   4.5523   4.9659

          k = 0.1111 0.4918 0.0000 (  8993 PWs)   bands (ev):

   -19.4245 -16.0484 -11.4399  -7.0500  -1.7537   4.4302   5.0868   5.8977

          k = 0.1111 0.5346 0.0000 (  8971 PWs)   bands (ev):

   -18.7613 -16.8463 -11.5400  -6.5462  -2.3882   4.3898   6.0991   6.8733

          k = 0.1111 0.5774 0.0000 (  8986 PWs)   bands (ev):

   -18.3436 -17.3095 -11.5735  -6.3371  -2.6414   4.3741   7.1046   7.2729

          k = 0.1481 0.2566 0.0000 (  9031 PWs)   bands (ev):

   -22.2275 -11.3440 -10.0964 -10.0419   1.1071   1.9497   2.9571   3.5527

          k = 0.1481 0.2994 0.0000 (  9027 PWs)   bands (ev):

   -21.8158 -12.0772 -10.6319  -9.5652   1.6772   2.1056   2.5230   4.1268

          k = 0.1481 0.3421 0.0000 (  9023 PWs)   bands (ev):

   -21.3442 -12.8929 -11.0834  -9.0266   1.2157   2.3334   3.1768   4.7841

          k = 0.1481 0.3849 0.0000 (  9003 PWs)   bands (ev):

   -20.8149 -13.7586 -11.4486  -8.4348   0.3044   3.0742   3.9134   5.4312

          k = 0.1481 0.4277 0.0000 (  8994 PWs)   bands (ev):

   -20.2313 -14.6405 -11.7347  -7.8048  -0.5995   3.8973   4.7262   5.4195

          k = 0.1481 0.4704 0.0000 (  8993 PWs)   bands (ev):

   -19.5996 -15.5108 -11.9466  -7.1654  -1.4558   4.7923   5.3442   5.6029

          k = 0.1481 0.5132 0.0000 (  8979 PWs)   bands (ev):

   -18.9370 -16.3390 -12.0871  -6.5797  -2.1917   5.2440   5.8083   6.5104

          k = 0.1481 0.5560 0.0000 (  8985 PWs)   bands (ev):

   -18.3296 -17.0309 -12.1572  -6.1877  -2.6605   5.2198   6.8407   7.3108

          k = 0.1852 0.3208 0.0000 (  9019 PWs)   bands (ev):

   -21.3756 -12.6860 -11.2564  -9.0604   1.3073   2.2900   3.1272   4.7456

          k = 0.1852 0.3635 0.0000 (  8997 PWs)   bands (ev):

   -20.8772 -13.3844 -11.7811  -8.4978   0.4724   2.9880   3.8155   5.4481

          k = 0.1852 0.4063 0.0000 (  9001 PWs)   bands (ev):

   -20.3232 -14.1630 -12.1821  -7.8875  -0.3769   3.7693   4.5771   6.2010

          k = 0.1852 0.4491 0.0000 (  8980 PWs)   bands (ev):

   -19.7184 -14.9820 -12.4734  -7.2485  -1.2135   4.6308   5.3954   6.3321

          k = 0.1852 0.4918 0.0000 (  8979 PWs)   bands (ev):

   -19.0728 -15.7993 -12.6721  -6.6196  -1.9905   5.5629   6.2254   6.2664

          k = 0.1852 0.5346 0.0000 (  8973 PWs)   bands (ev):

   -18.4208 -16.5608 -12.7883  -6.0931  -2.6090   6.1805   6.6011   6.9255

          k = 0.1852 0.5774 0.0000 (  8962 PWs)   bands (ev):

   -18.0110 -17.0082 -12.8266  -5.8660  -2.8672   6.1755   7.2065   7.5371

          k = 0.2222 0.3849 0.0000 (  9023 PWs)   bands (ev):

   -20.3539 -13.9336 -12.4037  -7.9154  -0.2968   3.7263   4.5262   6.1946

          k = 0.2222 0.4277 0.0000 (  9003 PWs)   bands (ev):

   -19.7782 -14.5779 -12.8821  -7.2919  -1.0763   4.5456   5.2868   7.0052

          k = 0.2222 0.4704 0.0000 (  8979 PWs)   bands (ev):

   -19.1571 -15.3007 -13.2058  -6.6501  -1.8399   5.4405   6.0377   7.3040

          k = 0.2222 0.5132 0.0000 (  8959 PWs)   bands (ev):

   -18.5076 -16.0436 -13.4025  -6.0429  -2.5312   6.3976   6.6178   7.2469

          k = 0.2222 0.5560 0.0000 (  8971 PWs)   bands (ev):

   -17.9127 -16.6923 -13.4957  -5.6103  -3.0068   6.8636   7.1595   7.4431

          k = 0.2593 0.4491 0.0000 (  8989 PWs)   bands (ev):

   -19.1855 -15.0544 -13.4651  -6.6614  -1.7839   5.3981   5.9713   7.8562

          k = 0.2593 0.4918 0.0000 (  8956 PWs)   bands (ev):

   -18.5558 -15.6307 -13.8637  -6.0225  -2.4763   6.3165   6.4458   8.2271

          k = 0.2593 0.5346 0.0000 (  8945 PWs)   bands (ev):

   -17.9211 -16.2614 -14.0793  -5.4463  -3.0843   6.5951   7.2723   8.1638

          k = 0.2593 0.5774 0.0000 (  8956 PWs)   bands (ev):

   -17.5132 -16.6735 -14.1462  -5.1650  -3.3762   6.6096   8.0473   8.1113

          k = 0.2963 0.5132 0.0000 (  8958 PWs)   bands (ev):

   -17.9317 -16.0305 -14.3544  -5.3900  -3.1086   6.4972   7.2338   8.7528

          k = 0.2963 0.5560 0.0000 (  8951 PWs)   bands (ev):

   -17.3473 -16.5015 -14.6036  -4.8421  -3.6544   6.4413   8.1101   8.6641

          k = 0.3333 0.5774 0.0000 (  8946 PWs)   bands (ev):

   -16.8520 -16.8520 -14.8129  -4.2418  -4.2418   6.3733   8.6297   8.6297

     the Fermi energy is    -4.2418 ev

!    total energy              =     -36.88809658 Ry
     total all-electron energy =      -152.416292 Ry
     estimated scf accuracy    <          5.5E-11 Ry
     smearing contrib. (-TS)   =      -0.00003096 Ry
     internal energy E=F+TS    =     -36.88806562 Ry

     The total energy is F=E-TS. E is the sum of the following terms:
     one-electron contribution =    -256.24426181 Ry
     hartree contribution      =     128.99954495 Ry
     xc contribution           =      -9.27346963 Ry
     ewald contribution        =     111.96412791 Ry
     one-center paw contrib.   =     -12.33400705 Ry

     convergence has been achieved in   7 iterations

     negative rho (up, down):  9.017E-05 0.000E+00

     Forces acting on atoms (cartesian axes, Ry/au):

     atom    1 type  1   force =     0.00000000    0.00000000    0.00000000
     atom    2 type  1   force =     0.00000000    0.00000000    0.00000000

     Total force =     0.000000     Total SCF correction =     0.000000


     Computing stress (Cartesian axis) and pressure


     negative rho (up, down):  9.017E-05 0.000E+00
          total   stress  (Ry/bohr**3)                   (kbar)     P=        0.71
   0.00000745  -0.00000000   0.00000000            1.10       -0.00        0.00
  -0.00000000   0.00000745   0.00000000           -0.00        1.10        0.00
   0.00000000   0.00000000  -0.00000035            0.00        0.00       -0.05


     Writing all to output data dir ./tmp/graphene.save/ :
     XML data file, charge density, pseudopotentials, collected wavefunctions

     init_run     :      2.00s CPU      2.06s WALL (       1 calls)
     electrons    :     37.71s CPU     39.10s WALL (       1 calls)
     forces       :      0.35s CPU      0.35s WALL (       1 calls)
     stress       :      1.51s CPU      1.47s WALL (       1 calls)

     Called by init_run:
     wfcinit      :      1.26s CPU      1.31s WALL (       1 calls)
     potinit      :      0.11s CPU      0.10s WALL (       1 calls)
     hinit0       :      0.37s CPU      0.37s WALL (       1 calls)

     Called by electrons:
     c_bands      :     31.57s CPU     32.85s WALL (       7 calls)
     sum_band     :      5.36s CPU      5.46s WALL (       7 calls)
     v_of_rho     :      0.29s CPU      0.29s WALL (       8 calls)
     newd         :      0.16s CPU      0.16s WALL (       8 calls)
     PAW_pot      :      0.38s CPU      0.37s WALL (       8 calls)
     mix_rho      :      0.05s CPU      0.05s WALL (       7 calls)

     Called by c_bands:
     init_us_2    :      1.01s CPU      1.04s WALL (    1275 calls)
     cegterg      :     30.56s CPU     31.81s WALL (     525 calls)

     Called by *egterg:
     cdiaghg      :      0.42s CPU      0.43s WALL (    2909 calls)
     h_psi        :     26.98s CPU     28.25s WALL (    2984 calls)
     s_psi        :      0.40s CPU      0.41s WALL (    2984 calls)
     g_psi        :      0.38s CPU      0.38s WALL (    2384 calls)

     Called by h_psi:
     h_psi:calbec :      0.94s CPU      0.94s WALL (    2984 calls)
     vloc_psi     :     25.26s CPU     26.52s WALL (    2984 calls)
                                        0.00s GPU  (    2984 calls)
     add_vuspsi   :      0.61s CPU      0.62s WALL (    2984 calls)

     General routines
     calbec       :      1.74s CPU      1.74s WALL (    4784 calls)
     fft          :      0.42s CPU      0.42s WALL (     113 calls)
     ffts         :      0.01s CPU      0.01s WALL (       7 calls)
     fftw         :     26.26s CPU     27.57s WALL (   31542 calls)
     davcio       :      0.22s CPU      0.26s WALL (    1927 calls)

     Parallel routines

     PWSCF        :     41.76s CPU     43.39s WALL


   This run was terminated on:  19:33:59   3Sep2026            

=------------------------------------------------------------------------------=
   JOB DONE.
=------------------------------------------------------------------------------=
