11
Properties=species:S:1:pos:R:3:move_mask:L:1 labels="_JSON [\"U1\", \"O1\", \"O2\", \"I1\", \"I2\", \"O3\", \"O4\", \"H1\", \"H2\", \"H3\", \"H4\"]" reference="Crawford et al., Inorg. Chem. 2003" pbc="F F F"
U        0.00000000       0.00000000       0.00000000  F
O        0.00000000       0.00000000       1.78571984  T
O        0.00000000       0.00000000      -1.78571984  T
I        3.02803719       0.00000000      -0.00000000  T
I       -3.02803719      -0.00000000      -0.00000000  T
O        0.00000000       2.53899694       0.00000000  T
O       -0.00000000      -2.53899694       0.00000000  T
H        0.78525037       3.11344486       0.05798929  T
H       -0.78525037       3.11344486      -0.05798929  T
H        0.78525037      -3.11344486      -0.05798929  T
H       -0.78525037      -3.11344486       0.05798929  T
