 argument  1 = uo2i2water2_b3lyp_stuttgart_rlc_ecp.nw
                                         
                                         


             Northwest Computational Chemistry Package (NWChem) 7.3.0
             --------------------------------------------------------


                    Environmental Molecular Sciences Laboratory
                       Pacific Northwest National Laboratory
                                Richland, WA 99352

                              Copyright (c) 1994-2025
                       Pacific Northwest National Laboratory
                            Battelle Memorial Institute

             NWChem is an open-source computational chemistry package
                        distributed under the terms of the
                      Educational Community License (ECL) 2.0
             A copy of the license is included with this distribution
                              in the LICENSE.TXT file

                                  ACKNOWLEDGMENT
                                  --------------

            This software and its documentation were developed at the
            EMSL at Pacific Northwest National Laboratory, a multiprogram
            national laboratory, operated for the U.S. Department of Energy
            by Battelle under Contract Number DE-AC05-76RL01830. Support
            for this work was provided by the Department of Energy Office
            of Biological and Environmental Research, Office of Basic
            Energy Sciences, and the Office of Advanced Scientific Computing.


           Job information
           ---------------

    hostname        = DESKTOP-5RF4RFP
    program         = nwchem
    date            = Tue Sep  1 16:22:36 2026

    compiled        = Wed_Dec_10_07:03:41_2025
    source          = /home/conda/feedstock_root/build_artifacts/bld/rattler-build_nwchem_1765343021/work
    nwchem branch   = 7.3.0
    nwchem revision = 3272822
    ga revision     = 5.9.2
    use scalapack   = T
    input           = uo2i2water2_b3lyp_stuttgart_rlc_ecp.nw
    prefix          = uo2i2water2_b3lyp_stuttgart_rlc_ecp.
    data base       = ./uo2i2water2_b3lyp_stuttgart_rlc_ecp.db
    status          = startup
    nproc           =        4
    time left       =     -1s



           Memory information
           ------------------

    heap     =     26214400 doubles =      200.0 Mbytes
    stack    =     26214397 doubles =      200.0 Mbytes
    global   =     52428800 doubles =      400.0 Mbytes (distinct from heap & stack)
    total    =    104857597 doubles =      800.0 Mbytes
    verify   = yes
    hardfail = no 


           Directory information
           ---------------------

  0 permanent = .
  0 scratch   = .




                                NWChem Input Module
                                -------------------


                          UO2I2(OH2)2 - DFT Single Point
                          ------------------------------

 Scaling coordinates for geometry "geometry" by  1.889725989
 (inverse scale =  0.529177249)

 D2  symmetry detected

          ------
          auto-z
          ------
      warning. autoz generated   10 bonds for atom    1
  no constraints, skipping    0.0000000000000000     
  no constraints, skipping    0.0000000000000000     


                             Geometry "geometry" -> ""
                             -------------------------

 Output coordinates in angstroms (scale by  1.889725989 to convert to a.u.)

  No.       Tag          Charge          X              Y              Z
 ---- ---------------- ---------- -------------- -------------- --------------
    1 U                   92.0000     0.00000000     0.00000000     0.00000000
    2 O                    8.0000     0.00000000     0.00000000     1.77300000
    3 O                    8.0000     0.00000000     0.00000000    -1.77300000
    4 I                   53.0000     0.00000000    -3.02670000     0.00000000
    5 I                   53.0000     0.00000000     3.02670000     0.00000000
    6 O                    8.0000     2.31800000     0.00000000     0.00000000
    7 O                    8.0000    -2.31800000     0.00000000     0.00000000
    8 H                    1.0000     2.65790000    -0.74870000     0.05000000
    9 H                    1.0000     2.65790000     0.74870000    -0.05000000
   10 H                    1.0000    -2.65790000    -0.74870000    -0.05000000
   11 H                    1.0000    -2.65790000     0.74870000     0.05000000

      Atomic Mass 
      ----------- 

      U                238.050800
      O                 15.994910
      I                126.900400
      H                  1.007825


 Effective nuclear repulsion energy (a.u.)    3442.6826737550

            Nuclear Dipole moment (a.u.) 
            ----------------------------
        X                 Y               Z
 ---------------- ---------------- ----------------
     0.0000000000     0.0000000000     0.0000000000

      Symmetry information
      --------------------

 Group name             D2        
 Group number             11
 Group order               4
 No. of unique centers     5

      Symmetry unique atoms

     1    2    4    6    8



                                Z-matrix (autoz)
                                -------- 

 Units are Angstrom for bonds and degrees for angles

      Type          Name      I     J     K     L     M      Value
      ----------- --------  ----- ----- ----- ----- ----- ----------
    1 Stretch                  1     2                       1.77300
    2 Stretch                  1     3                       1.77300
    3 Stretch                  1     4                       3.02670
    4 Stretch                  1     5                       3.02670
    5 Stretch                  1     6                       2.31800
    6 Stretch                  1     7                       2.31800
    7 Stretch                  1     8                       2.76179
    8 Stretch                  1     9                       2.76179
    9 Stretch                  1    10                       2.76179
   10 Stretch                  1    11                       2.76179
   11 Stretch                  6     8                       0.82376
   12 Stretch                  6     9                       0.82376
   13 Stretch                  7    10                       0.82376
   14 Stretch                  7    11                       0.82376
   15 Bend                     1     6     8               114.36948
   16 Bend                     1     6     9               114.36948
   17 Bend                     1     7    10               114.36948
   18 Bend                     1     7    11               114.36948
   19 Bend                     1     8     6                49.86530
   20 Bend                     1     9     6                49.86530
   21 Bend                     1    10     7                49.86530
   22 Bend                     1    11     7                49.86530
   23 Bend                     2     1     4                90.00000
   24 Bend                     2     1     5                90.00000
   25 Bend                     2     1     6                90.00000
   26 Bend                     2     1     7                90.00000
   27 Bend                     2     1     8                88.96265
   28 Bend                     2     1     9                91.03735
   29 Bend                     2     1    10                91.03735
   30 Bend                     2     1    11                88.96265
   31 Bend                     3     1     4                90.00000
   32 Bend                     3     1     5                90.00000
   33 Bend                     3     1     6                90.00000
   34 Bend                     3     1     7                90.00000
   35 Bend                     3     1     8                91.03735
   36 Bend                     3     1     9                88.96265
   37 Bend                     3     1    10                88.96265
   38 Bend                     3     1    11                91.03735
   39 Bend                     4     1     6                90.00000
   40 Bend                     4     1     7                90.00000
   41 Bend                     4     1     8                74.27072
   42 Bend                     4     1     9               105.72928
   43 Bend                     4     1    10                74.27072
   44 Bend                     4     1    11               105.72928
   45 Bend                     5     1     6                90.00000
   46 Bend                     5     1     7                90.00000
   47 Bend                     5     1     8               105.72928
   48 Bend                     5     1     9                74.27072
   49 Bend                     5     1    10               105.72928
   50 Bend                     5     1    11                74.27072
   51 Bend                     6     1     8                15.76522
   52 Bend                     6     1     9                15.76522
   53 Bend                     6     1    10               164.23478
   54 Bend                     6     1    11               164.23478
   55 Bend                     7     1     8               164.23478
   56 Bend                     7     1     9               164.23478
   57 Bend                     7     1    10                15.76522
   58 Bend                     7     1    11                15.76522
   59 Bend                     8     1     9                31.53044
   60 Bend                     8     1    10               148.54145
   61 Bend                     8     6     9               131.26105
   62 Bend                     9     1    11               148.54145
   63 Bend                    10     1    11                31.53044
   64 Bend                    10     7    11               131.26105
   65 Torsion                  1     8     6     9        -180.00000
   66 Torsion                  1     9     6     8        -180.00000
   67 Torsion                  1    10     7    11        -180.00000
   68 Torsion                  1    11     7    10        -180.00000
   69 Torsion                  2     1     6     8          86.17932
   70 Torsion                  2     1     6     9         -93.82068
   71 Torsion                  2     1     7    10         -93.82068
   72 Torsion                  2     1     7    11          86.17932
   73 Torsion                  2     1     8     6         -93.67736
   74 Torsion                  2     1     9     6          86.32264
   75 Torsion                  2     1    10     7          86.32264
   76 Torsion                  2     1    11     7         -93.67736
   77 Torsion                  3     1     6     8         -93.82068
   78 Torsion                  3     1     6     9          86.17932
   79 Torsion                  3     1     7    10          86.17932
   80 Torsion                  3     1     7    11         -93.82068
   81 Torsion                  3     1     8     6          86.32264
   82 Torsion                  3     1     9     6         -93.67736
   83 Torsion                  3     1    10     7         -93.67736
   84 Torsion                  3     1    11     7          86.32264
   85 Torsion                  4     1     6     8          -3.82068
   86 Torsion                  4     1     6     9         176.17932
   87 Torsion                  4     1     7    10          -3.82068
   88 Torsion                  4     1     7    11         176.17932
   89 Torsion                  4     1     8     6         176.03045
   90 Torsion                  4     1     9     6          -3.96955
   91 Torsion                  4     1    10     7         176.03045
   92 Torsion                  4     1    11     7          -3.96955
   93 Torsion                  5     1     6     8         176.17932
   94 Torsion                  5     1     6     9          -3.82068
   95 Torsion                  5     1     7    10         176.17932
   96 Torsion                  5     1     7    11          -3.82068
   97 Torsion                  5     1     8     6          -3.96955
   98 Torsion                  5     1     9     6         176.03045
   99 Torsion                  5     1    10     7          -3.96955
  100 Torsion                  5     1    11     7         176.03045
  101 Torsion                  6     1    10     7        -180.00000
  102 Torsion                  6     1    11     7        -180.00000
  103 Torsion                  6     8     1     7        -180.00000
  104 Torsion                  6     8     1     9           0.00000
  105 Torsion                  6     8     1    10         176.03045
  106 Torsion                  6     8    11     7         170.90281
  107 Torsion                  8     6     1    11         172.35864
  108 Torsion                  6     9     1     7        -180.00000
  109 Torsion                  6     9     1     8           0.00000
  110 Torsion                  6     9    10     7         170.90281
  111 Torsion                  9     6     1    10         172.35864
  112 Torsion                  6     9     1    11         176.03045
  113 Torsion                  7    10     1     8         176.03045
  114 Torsion                  9     1     7    10         172.35864
  115 Torsion                  7    10     1    11           0.00000
  116 Torsion                  8     1     7    11         172.35864
  117 Torsion                  7    11     1     9         176.03045
  118 Torsion                  7    11     1    10           0.00000
  119 Torsion                  8     1     6     9        -180.00000
  120 Torsion                  8     1     7    10          -7.64136
  121 Torsion                  8     6     7    10          -7.64136
  122 Torsion                  8     6     7    11         172.35864
  123 Torsion                  8     6     1     9        -180.00000
  124 Torsion                  8     6     1    10          -7.64136
  125 Torsion                  9     1     7    11          -7.64136
  126 Torsion                  9     6     7    10         172.35864
  127 Torsion                  9     6     7    11          -7.64136
  128 Torsion                  9     6     1    11          -7.64136
  129 Torsion                 10     1     7    11        -180.00000
  130 Torsion                 10     7     1    11        -180.00000


            XYZ format geometry
            -------------------
    11
 geometry
 U                     0.00000000     0.00000000     0.00000000
 O                     0.00000000     0.00000000     1.77300000
 O                     0.00000000     0.00000000    -1.77300000
 I                     0.00000000    -3.02670000     0.00000000
 I                     0.00000000     3.02670000     0.00000000
 O                     2.31800000     0.00000000     0.00000000
 O                    -2.31800000     0.00000000     0.00000000
 H                     2.65790000    -0.74870000     0.05000000
 H                     2.65790000     0.74870000    -0.05000000
 H                    -2.65790000    -0.74870000    -0.05000000
 H                    -2.65790000     0.74870000     0.05000000

 ==============================================================================
                                internuclear distances
 ------------------------------------------------------------------------------
       center one      |      center two      | atomic units |  angstroms
 ------------------------------------------------------------------------------
    2 O                |   1 U                |     3.35048  |     1.77300
    3 O                |   1 U                |     3.35048  |     1.77300
    4 I                |   1 U                |     5.71963  |     3.02670
    5 I                |   1 U                |     5.71963  |     3.02670
    6 O                |   1 U                |     4.38038  |     2.31800
    7 O                |   1 U                |     4.38038  |     2.31800
    8 H                |   6 O                |     1.55668  |     0.82376
    9 H                |   6 O                |     1.55668  |     0.82376
   10 H                |   7 O                |     1.55668  |     0.82376
   11 H                |   7 O                |     1.55668  |     0.82376
 ------------------------------------------------------------------------------
                         number of included internuclear distances:         10
 ==============================================================================



 ==============================================================================
                                 internuclear angles
 ------------------------------------------------------------------------------
        center 1       |       center 2       |       center 3       |  degrees
 ------------------------------------------------------------------------------
    2 O                |   1 U                |   3 O                |   180.00
    2 O                |   1 U                |   4 I                |    90.00
    2 O                |   1 U                |   5 I                |    90.00
    2 O                |   1 U                |   6 O                |    90.00
    2 O                |   1 U                |   7 O                |    90.00
    3 O                |   1 U                |   4 I                |    90.00
    3 O                |   1 U                |   5 I                |    90.00
    3 O                |   1 U                |   6 O                |    90.00
    3 O                |   1 U                |   7 O                |    90.00
    4 I                |   1 U                |   5 I                |   180.00
    4 I                |   1 U                |   6 O                |    90.00
    4 I                |   1 U                |   7 O                |    90.00
    5 I                |   1 U                |   6 O                |    90.00
    5 I                |   1 U                |   7 O                |    90.00
    6 O                |   1 U                |   7 O                |   180.00
    1 U                |   6 O                |   8 H                |   114.37
    1 U                |   6 O                |   9 H                |   114.37
    8 H                |   6 O                |   9 H                |   131.26
    1 U                |   7 O                |  10 H                |   114.37
    1 U                |   7 O                |  11 H                |   114.37
   10 H                |   7 O                |  11 H                |   131.26
 ------------------------------------------------------------------------------
                            number of included internuclear angles:         21
 ==============================================================================



  library name resolved from: environment
  library file name is: </home/compchemisteman/miniforge3/envs/molmatmodel/share/nwchem/libraries/>
  
                      Basis "ao basis" -> "" (spherical)
                      -----
  U (Uranium)
  -----------
            Exponent  Coefficients 
       -------------- ---------------------------------------------------------
  1 S  1.21252530E+01  0.021921
  1 S  7.16154500E+00 -0.225160
  1 S  4.77483600E+00  0.560299
  1 S  2.01169300E+00 -1.071209

  2 S  5.86852000E-01  1.000000

  3 S  2.79115000E-01  1.000000

  4 S  6.33720000E-02  1.000000

  5 S  2.56110000E-02  1.000000

  6 P  1.72547700E+01  0.001398
  6 P  7.73535600E+00 -0.033346
  6 P  5.15587800E+00  0.110578
  6 P  2.24167000E+00 -0.317268

  7 P  5.81858000E-01  1.000000

  8 P  2.67908000E-01  1.000000

  9 P  8.34420000E-02  1.000000

 10 P  3.21300000E-02  1.000000

 11 D  4.84107000E+00  0.005731
 11 D  2.16016200E+00 -0.057236
 11 D  5.75630000E-01  0.238828

 12 D  2.78136000E-01  1.000000

 13 D  1.24879000E-01  1.000000

 14 D  5.15480000E-02  1.000000

 15 F  2.43644100E+00  0.355011
 15 F  1.14468200E+00  0.400846
 15 F  5.29693000E-01  0.304679

 16 F  2.40596000E-01  1.000000

 17 F  1.01867000E-01  1.000000

 18 G  1.18000000E+00  1.000000

 19 G  4.20000000E-01  1.000000

  I (Iodine)
  ----------
            Exponent  Coefficients 
       -------------- ---------------------------------------------------------
  1 S  2.12276500E+00  1.104028
  1 S  1.77048100E+00 -1.535326
  1 S  3.13084000E-01  0.751603

  2 S  1.24071000E-01  1.000000

  3 P  2.43288700E+00  0.442232
  3 P  2.13724900E+00 -0.583809
  3 P  3.14546000E-01  0.626606

  4 P  1.04945000E-01  1.000000

  5 P  3.26410000E-02  1.000000

  O (Oxygen)
  ----------
            Exponent  Coefficients 
       -------------- ---------------------------------------------------------
  1 S  5.48467170E+03  0.001831
  1 S  8.25234950E+02  0.013950
  1 S  1.88046960E+02  0.068445
  1 S  5.29645000E+01  0.232714
  1 S  1.68975700E+01  0.470193
  1 S  5.79963530E+00  0.358521

  2 S  1.55396160E+01 -0.110778
  2 S  3.59993360E+00 -0.148026
  2 S  1.01376180E+00  1.130767

  3 P  1.55396160E+01  0.070874
  3 P  3.59993360E+00  0.339753
  3 P  1.01376180E+00  0.727159

  4 S  2.70005800E-01  1.000000

  5 P  2.70005800E-01  1.000000

  6 D  8.00000000E-01  1.000000

  H (Hydrogen)
  ------------
            Exponent  Coefficients 
       -------------- ---------------------------------------------------------
  1 S  1.87311370E+01  0.033495
  1 S  2.82539370E+00  0.234727
  1 S  6.40121700E-01  0.813757

  2 S  1.61277800E-01  1.000000



 Summary of "ao basis" -> "" (spherical)
 ------------------------------------------------------------------------------
       Tag                 Description            Shells   Functions and Types
 ---------------- ------------------------------  ------  ---------------------
 U                     stuttgart rlc ecp            19       79   5s5p4d3f2g
 I                     stuttgart rlc ecp             5       11   2s3p
 O                           6-31G*                  6       14   3s2p1d
 H                           6-31G*                  2        2   2s


  library name resolved from: environment
  library file name is: </home/compchemisteman/miniforge3/envs/molmatmodel/share/nwchem/libraries/>
  

 **** WARNING Zero Coefficient **** on atom "               U"
 angular momentum value:-1  standard basis set name: "stuttgart rlc ecp"
 input line that generated warning:
  2118: 2      1.000000000            0.000000000
  
 Local ECP potential is zero and ignored
  

 **** WARNING Zero Coefficient **** on atom "               I"
 angular momentum value:-1  standard basis set name: "stuttgart rlc ecp"
 input line that generated warning:
  1856: 2      1.000000000            0.000000000
  
 Local ECP potential is zero and ignored
  
                 ECP       "ecp basis" -> "" (cartesian)
                -----
  U (Uranium) Replaces    78 electrons
  ------------------------------------
             Channel    R-exponent     Exponent     Coefficients
         ------------ ---------------------------------------------------------
  1 U-s       Both         2.00        4.063653     112.920103
  1 U-s       Both         2.00        1.883995      15.647500
  1 U-s       Both         2.00        0.886567      -3.689971

  2 U-p       Both         2.00        3.986181     118.758016
  2 U-p       Both         2.00        2.000160      15.077228
  2 U-p       Both         2.00        0.960841       0.556720

  3 U-d       Both         2.00        4.147972      60.855892
  3 U-d       Both         2.00        2.234563      29.280047
  3 U-d       Both         2.00        0.913695       4.998029

  4 U-f       Both         2.00        3.998938      49.924035
  4 U-f       Both         2.00        1.998840     -24.674042
  4 U-f       Both         2.00        0.995641       1.389480

  5 U-g       Both         2.00        3.817422     -36.040977
  5 U-g       Both         2.00        0.262501      -0.090511

  I (Iodine) Replaces    46 electrons
  -----------------------------------
             Channel    R-exponent     Exponent     Coefficients
         ------------ ---------------------------------------------------------
  1 U-s       Both         2.00        3.511200      83.113863
  1 U-s       Both         2.00        1.755600       5.201876

  2 U-p       Both         2.00        2.968800      82.811109
  2 U-p       Both         2.00        1.484400       3.379682

  3 U-d       Both         2.00        1.906600      10.304277
  3 U-d       Both         2.00        0.953300       7.588032

  4 U-f       Both         2.00        2.307500     -21.477936


                                 NWChem DFT Module
                                 -----------------


                          UO2I2(OH2)2 - DFT Single Point




 Summary of "ao basis" -> "ao basis" (spherical)
 ------------------------------------------------------------------------------
       Tag                 Description            Shells   Functions and Types
 ---------------- ------------------------------  ------  ---------------------
 U                     stuttgart rlc ecp            19       79   5s5p4d3f2g
 I                     stuttgart rlc ecp             5       11   2s3p
 O                           6-31G*                  6       14   3s2p1d
 H                           6-31G*                  2        2   2s


      Symmetry analysis of basis
      --------------------------

        a1         45
        b1         41
        b2         38
        b3         41

  Caching 1-el integrals 

            General Information
            -------------------
          SCF calculation type: DFT
          Wavefunction type:  closed shell.
          No. of atoms     :    11
          No. of electrons :    64
           Alpha electrons :    32
            Beta electrons :    32
          Charge           :     0
          Spin multiplicity:     1
          Use of symmetry is: on ; symmetry adaption is: on 
          Maximum number of iterations: 100
          AO basis - number of functions:   165
                     number of shells:    61
          Convergence on energy requested:  1.00D-06
          Convergence on density requested:  1.00D-05
          Convergence on gradient requested:  5.00D-04

              XC Information
              --------------
                         B3LYP Method XC Potential
                     Hartree-Fock (Exact) Exchange  0.200          
                        Slater Exchange Functional  0.800 local    
                    Becke 1988 Exchange Functional  0.720 non-local
              Lee-Yang-Parr Correlation Functional  0.810          
                  VWN I RPA Correlation Functional  0.190 local    

             Grid Information
             ----------------
          Grid used for XC integration:  medium    
          Radial quadrature: Mura-Knowles        
          Angular quadrature: Lebedev. 
          Tag              B.-S. Rad. Rad. Pts. Rad. Cut. Ang. Pts.
          ---              ---------- --------- --------- ---------
          U                   1.75      123          14.0       590
          O                   0.60       49          12.0       434
          I                   1.40      123          18.0       590
          H                   0.35       45          14.0       434
          Grid pruning is: on 
          Number of quadrature shells:   389
          Spatial weights used:  Erf1

          Convergence Information
          -----------------------
          Convergence aids based upon iterative change in 
          total energy or number of iterations. 
          Levelshifting, if invoked, occurs when the 
          HOMO/LUMO gap drops below (HL_TOL):  1.00D-02
          DIIS, if invoked, will attempt to extrapolate 
          using up to (NFOCK): 10 stored Fock matrices.

                    Damping( 0%)  Levelshifting(0.5)       DIIS
                  --------------- ------------------- ---------------
          dE  on:    start            ASAP                start   
          dE off:    2 iters        100 iters           100 iters 


      Screening Tolerance Information
      -------------------------------
          Density screening/tol_rho:  1.00D-10
          AO Gaussian exp screening on grid/accAOfunc:  14
          CD Gaussian exp screening on grid/accCDfunc:  20
          XC Gaussian exp screening on grid/accXCfunc:  20
          Schwarz screening/accCoul:  1.00D-08


      Superposition of Atomic Density Guess
      -------------------------------------

 Sum of atomic energies:        -378.56911936

      Non-variational initial energy
      ------------------------------

 Total energy =    -374.540560
 1-e energy   =   -1210.368187
 2-e energy   =     497.612780
 HOMO         =      -0.241337
 LUMO         =      -0.015220


      Symmetry analysis of molecular orbitals - initial
      -------------------------------------------------

  Numbering of irreducible representations: 

     1 a1          2 b1          3 b2          4 b3      

  Orbital symmetries:

     1 a1          2 b3          3 a1          4 b1          5 a1      
     6 b3          7 a1          8 b1          9 a1         10 b2      
    11 b3         12 b1         13 b2         14 b1         15 a1      
    16 b2         17 a1         18 b2         19 b3         20 b1      
    21 b3         22 b2         23 a1         24 b2         25 b3      
    26 a1         27 b1         28 b1         29 b3         30 b3      
    31 b2         32 b1         33 a1         34 b3         35 b2      
    36 b1         37 a1         38 b1         39 b3         40 b1      
    41 b3         42 b2      

   Time after variat. SCF:      1.8
   Time prior to 1st pass:      1.9

 Grid_pts file          = ./uo2i2water2_b3lyp_stuttgart_rlc_ecp.gridpts.0
 Record size in doubles =  12289        No. of grid_pts per rec  =   3070
 Max. records in memory =     22        Max. recs in file   = 253312716


           Memory utilization after 1st SCF pass: 
           Heap Space remaining (MW):        0.00                1340
          Stack Space remaining (MW):       26.21            26213276

   convergence    iter        energy       DeltaE   RMS-Dens  Diis-err    time
 ---------------- ----- ----------------- --------- --------- ---------  ------
 d= 0,ls=0.0,diis     1   -376.1600911229 -7.14D+02  5.70D-02  1.06D+01     6.0
 Grid integrated density:      64.000142649509
 Requested integration accuracy:   0.10E-05
 d= 0,ls=0.0,diis     2   -322.1475437270  5.40D+01  4.01D-02  4.46D+02    10.2
 d= 0,ls=0.5,diis     3   -371.3325871229 -4.92D+01  3.37D-03  7.00D+01    14.5
 d= 0,ls=0.5,diis     4   -372.6264813865 -1.29D+00  1.85D-03  5.81D+01    18.6
 d= 0,ls=0.5,diis     5   -373.2323204598 -6.06D-01  1.87D-03  5.17D+01    23.1
 d= 0,ls=0.5,diis     6   -374.1069317460 -8.75D-01  4.51D-03  4.01D+01    27.7
 d= 0,ls=0.5,diis     7   -375.8050952413 -1.70D+00  3.97D-03  1.71D+01    32.9
 d= 0,ls=0.5,diis     8   -376.7683235696 -9.63D-01  3.32D-03  5.30D+00    37.1
 d= 0,ls=0.5,diis     9   -377.1891268093 -4.21D-01  2.10D-03  9.61D-01    41.9
 d= 0,ls=0.5,diis    10   -377.3001132909 -1.11D-01  1.18D-03  1.16D-01    46.3
  Resetting Diis
 d= 0,ls=0.5,diis    11   -377.3253804700 -2.53D-02  7.75D-04  1.72D-02    50.7
 d= 0,ls=0.5,diis    12   -377.3335859699 -8.21D-03  5.46D-04  7.68D-03    55.8
 d= 0,ls=0.5,diis    13   -377.3375347705 -3.95D-03  4.51D-04  4.20D-03    61.7
 d= 0,ls=0.5,diis    14   -377.3397108116 -2.18D-03  3.26D-04  2.41D-03    67.5
 d= 0,ls=0.5,diis    15   -377.3410499081 -1.34D-03  2.63D-04  1.33D-03    73.1
 d= 0,ls=0.5,diis    16   -377.3417976847 -7.48D-04  1.82D-04  1.07D-03    78.6
 d= 0,ls=0.5,diis    17   -377.3422413797 -4.44D-04  1.60D-04  8.41D-04    83.9
 d= 0,ls=0.5,diis    18   -377.3424571058 -2.16D-04  1.17D-04  1.01D-03    89.2
 d= 0,ls=0.5,diis    19   -377.3426315342 -1.74D-04  1.02D-04  8.97D-04    94.8
 d= 0,ls=0.5,diis    20   -377.3427951680 -1.64D-04  1.14D-04  6.76D-04   100.1
 d= 0,ls=0.5,diis    21   -377.3429824387 -1.87D-04  1.46D-04  5.39D-04   105.3
 d= 0,ls=0.5,diis    22   -377.3432640192 -2.82D-04  2.06D-04  5.29D-04   110.9
 d= 0,ls=0.5,diis    23   -377.3437726014 -5.09D-04  2.95D-04  8.46D-04   116.5
 d= 0,ls=0.5,diis    24   -377.3447819486 -1.01D-03  4.31D-04  1.79D-03   121.7
 d= 0,ls=0.5,diis    25   -377.3469257681 -2.14D-03  6.28D-04  3.81D-03   128.0
 d= 0,ls=0.5,diis    26   -377.3512310693 -4.31D-03  9.00D-04  9.37D-03   133.0
 d= 0,ls=0.5,diis    27   -377.3598034431 -8.57D-03  1.26D-03  2.16D-02   138.9
 d= 0,ls=0.5,diis    28   -377.3749848294 -1.52D-02  1.67D-03  5.20D-02   145.6
 d= 0,ls=0.5,diis    29   -377.3960423192 -2.11D-02  2.03D-03  1.35D-01   151.4
 d= 0,ls=0.5,diis    30   -377.4129745087 -1.69D-02  2.22D-03  3.53D-01   157.9
 d= 0,ls=0.5,diis    31   -377.4062547793  6.72D-03  2.16D-03  8.20D-01   164.0
 d= 0,ls=0.5,diis    32   -377.3713163551  3.49D-02  1.92D-03  1.48D+00   170.4
 d= 0,ls=0.5,diis    33   -377.3225300349  4.88D-02  1.60D-03  2.15D+00   176.6
 d= 0,ls=0.5,diis    34   -377.2787313576  4.38D-02  1.28D-03  2.65D+00   183.2
 d= 0,ls=0.5,diis    35   -377.2379318362  4.08D-02  1.00D-03  3.06D+00   190.2
 d= 0,ls=0.5,diis    36   -377.2087876111  2.91D-02  7.70D-04  3.32D+00   197.1
 d= 0,ls=0.5,diis    37   -377.1929137932  1.59D-02  5.88D-04  3.46D+00   202.8
 d= 0,ls=0.5,diis    38   -377.1850880119  7.83D-03  4.42D-04  3.52D+00   211.4
 d= 0,ls=0.5,diis    39   -377.1784645969  6.62D-03  3.92D-04  3.57D+00   221.8
 d= 0,ls=0.5,diis    40   -377.1914176391 -1.30D-02  5.02D-04  3.46D+00   229.7
 d= 0,ls=0.5,diis    41   -377.2178532244 -2.64D-02  5.60D-04  3.28D+00   236.8
 d= 0,ls=0.5,diis    42   -377.2555449319 -3.77D-02  2.46D-03  3.00D+00   243.7
 d= 0,ls=0.5,diis    43   -377.4156100266 -1.60D-01  1.65D-03  1.68D+00   250.2
 d= 0,ls=0.5,diis    44   -377.5095681518 -9.40D-02  1.84D-03  9.88D-01   257.3
 d= 0,ls=0.5,diis    45   -377.5824863228 -7.29D-02  1.07D-03  4.22D-01   263.0
 d= 0,ls=0.5,diis    46   -377.6189860195 -3.65D-02  7.33D-04  1.58D-01   269.4
 d= 0,ls=0.5,diis    47   -377.6342775542 -1.53D-02  4.82D-04  6.16D-02   275.8
 d= 0,ls=0.5,diis    48   -377.6406519920 -6.37D-03  3.57D-04  2.57D-02   282.1
 d= 0,ls=0.5,diis    49   -377.6432769073 -2.62D-03  2.76D-04  1.47D-02   289.1
 d= 0,ls=0.5,diis    50   -377.6446426574 -1.37D-03  2.48D-04  1.03D-02   295.6
 d= 0,ls=0.5,diis    51   -377.6451713658 -5.29D-04  1.56D-04  1.00D-02   302.2
 d= 0,ls=0.5,diis    52   -377.6457506037 -5.79D-04  1.31D-04  7.29D-03   308.5
 d= 0,ls=0.5,diis    53   -377.6462006968 -4.50D-04  1.16D-04  4.82D-03   314.6
 d= 0,ls=0.5,diis    54   -377.6465873539 -3.87D-04  8.66D-05  2.38D-03   320.6
 d= 0,ls=0.5,diis    55   -377.6468122880 -2.25D-04  6.44D-05  1.07D-03   327.1
 d= 0,ls=0.5,diis    56   -377.6469305553 -1.18D-04  4.99D-05  4.67D-04   333.6
 d= 0,ls=0.5,diis    57   -377.6469844442 -5.39D-05  3.90D-05  2.77D-04   340.0
 d= 0,ls=0.5,diis    58   -377.6470132925 -2.88D-05  3.03D-05  1.99D-04   346.8
 d= 0,ls=0.5,diis    59   -377.6470309503 -1.77D-05  2.41D-05  1.53D-04   353.0
 d= 0,ls=0.5,diis    60   -377.6470440080 -1.31D-05  1.93D-05  1.07D-04   359.1
 d= 0,ls=0.5,diis    61   -377.6470532479 -9.24D-06  1.54D-05  6.89D-05   364.9
 d= 0,ls=0.5,diis    62   -377.6470595743 -6.33D-06  1.23D-05  4.13D-05   371.5
 d= 0,ls=0.5,diis    63   -377.6470633172 -3.74D-06  9.36D-06  2.73D-05   377.8
 d= 0,ls=0.5,diis    64   -377.6470656555 -2.34D-06  7.63D-06  1.83D-05   385.1
 d= 0,ls=0.5,diis    65   -377.6470671519 -1.50D-06  6.28D-06  1.26D-05   392.8
 d= 0,ls=0.5,diis    66   -377.6470681673 -1.02D-06  5.08D-06  8.60D-06   400.7
 d= 0,ls=0.5,diis    67   -377.6470688556 -6.88D-07  4.37D-06  5.73D-06   407.5


         Total DFT energy =     -377.647069329005
      One electron energy =    -1215.106895089945
           Coulomb energy =      546.193049943158
    Exchange-Corr. energy =      -46.948070750151
 Nuclear repulsion energy =      338.214846567933

 Numeric. integr. density =       64.000027404680

     Total iterative time =    413.4s



                  Occupations of the irreducible representations
                  ----------------------------------------------

                     irrep           alpha         beta
                     --------     --------     --------
                     a1                9.0          9.0
                     b1                8.0          8.0
                     b2                7.0          7.0
                     b3                8.0          8.0


                       DFT Final Molecular Orbital Analysis
                       ------------------------------------

 Vector    1  Occ=2.000000D+00  E=-1.923433D+01  Symmetry=b3
              MO Center=  2.9D-14,  1.8D-18, -7.4D-20, r^2= 5.4D+00
   Bfn.  Coefficient  Atom+Function         Bfn.  Coefficient  Atom+Function  
  ----- ------------  ---------------      ----- ------------  ---------------
   130      0.703604   6 O  s               144     -0.703604   7 O  s         

 Vector    2  Occ=2.000000D+00  E=-1.923433D+01  Symmetry=a1
              MO Center= -2.9D-14,  1.3D-21,  7.1D-22, r^2= 5.4D+00
   Bfn.  Coefficient  Atom+Function         Bfn.  Coefficient  Atom+Function  
  ----- ------------  ---------------      ----- ------------  ---------------
   130      0.703572   6 O  s               144      0.703572   7 O  s         

 Vector    3  Occ=2.000000D+00  E=-1.919047D+01  Symmetry=a1
              MO Center=  1.1D-17, -2.5D-19, -5.3D-12, r^2= 3.2D+00
   Bfn.  Coefficient  Atom+Function         Bfn.  Coefficient  Atom+Function  
  ----- ------------  ---------------      ----- ------------  ---------------
    80      0.703701   2 O  s                94      0.703701   3 O  s         

 Vector    4  Occ=2.000000D+00  E=-1.919013D+01  Symmetry=b1
              MO Center= -2.3D-17, -1.3D-17,  5.3D-12, r^2= 3.2D+00
   Bfn.  Coefficient  Atom+Function         Bfn.  Coefficient  Atom+Function  
  ----- ------------  ---------------      ----- ------------  ---------------
    80      0.703719   2 O  s                94     -0.703719   3 O  s         

 Vector    5  Occ=2.000000D+00  E=-2.010028D+00  Symmetry=a1
              MO Center= -1.1D-15, -5.7D-16,  4.9D-16, r^2= 7.3D-01
   Bfn.  Coefficient  Atom+Function         Bfn.  Coefficient  Atom+Function  
  ----- ------------  ---------------      ----- ------------  ---------------
     2      1.116709   1 U  s                 1      0.786190   1 U  s         
     3      0.364378   1 U  s                85      0.029527   2 O  s         
    99      0.029527   3 O  s                81      0.025946   2 O  s         
    84     -0.025858   2 O  pz               95      0.025946   3 O  s         
    98      0.025858   3 O  pz        

 Vector    6  Occ=2.000000D+00  E=-1.193108D+00  Symmetry=b3
              MO Center=  7.5D-16, -5.6D-18, -8.3D-20, r^2= 6.2D+00
   Bfn.  Coefficient  Atom+Function         Bfn.  Coefficient  Atom+Function  
  ----- ------------  ---------------      ----- ------------  ---------------
   131      0.328302   6 O  s               145     -0.328302   7 O  s         
   135      0.324324   6 O  s               149     -0.324324   7 O  s         
   130     -0.152058   6 O  s               144      0.152058   7 O  s         
   158      0.106617   8 H  s               160      0.106617   9 H  s         
   162     -0.106617  10 H  s               164     -0.106617  11 H  s         

 Vector    7  Occ=2.000000D+00  E=-1.186655D+00  Symmetry=a1
              MO Center= -1.8D-15, -5.4D-18,  1.7D-15, r^2= 6.4D+00
   Bfn.  Coefficient  Atom+Function         Bfn.  Coefficient  Atom+Function  
  ----- ------------  ---------------      ----- ------------  ---------------
   131      0.335319   6 O  s               145      0.335319   7 O  s         
   135      0.329656   6 O  s               149      0.329656   7 O  s         
   130     -0.154606   6 O  s               144     -0.154606   7 O  s         
   158      0.110730   8 H  s               160      0.110730   9 H  s         
   162      0.110730  10 H  s               164      0.110730  11 H  s         

 Vector    8  Occ=2.000000D+00  E=-1.177529D+00  Symmetry=b1
              MO Center= -3.4D-16,  8.3D-17, -2.6D-14, r^2= 1.9D+00
   Bfn.  Coefficient  Atom+Function         Bfn.  Coefficient  Atom+Function  
  ----- ------------  ---------------      ----- ------------  ---------------
    11      0.385952   1 U  pz               14      0.282843   1 U  pz        
    81      0.230444   2 O  s                95     -0.230444   3 O  s         
    85      0.222711   2 O  s                99     -0.222711   3 O  s         
     8      0.164381   1 U  pz               80     -0.109087   2 O  s         
    94      0.109087   3 O  s                84     -0.105833   2 O  pz        

 Vector    9  Occ=2.000000D+00  E=-9.584752D-01  Symmetry=a1
              MO Center=  5.2D-15, -9.9D-15,  2.3D-14, r^2= 3.2D+00
   Bfn.  Coefficient  Atom+Function         Bfn.  Coefficient  Atom+Function  
  ----- ------------  ---------------      ----- ------------  ---------------
    85      0.382198   2 O  s                99      0.382198   3 O  s         
    81      0.354987   2 O  s                95      0.354987   3 O  s         
     2     -0.346047   1 U  s                 1     -0.202270   1 U  s         
    80     -0.161681   2 O  s                94     -0.161681   3 O  s         
    28      0.078937   1 U  d  0             84     -0.057538   2 O  pz        

 Vector   10  Occ=2.000000D+00  E=-9.425504D-01  Symmetry=b2
              MO Center=  7.2D-18,  1.2D-14, -1.8D-15, r^2= 1.2D+00
   Bfn.  Coefficient  Atom+Function         Bfn.  Coefficient  Atom+Function  
  ----- ------------  ---------------      ----- ------------  ---------------
    10      0.612294   1 U  py               13      0.456833   1 U  py        
     7      0.252989   1 U  py               16      0.103958   1 U  py        
    83      0.042847   2 O  py               97      0.042847   3 O  py        
   108     -0.033646   4 I  s               119      0.033646   5 I  s         
    87      0.026082   2 O  py              101      0.026082   3 O  py        

 Vector   11  Occ=2.000000D+00  E=-9.406392D-01  Symmetry=b3
              MO Center= -1.1D-14, -7.3D-16, -1.9D-15, r^2= 1.6D+00
   Bfn.  Coefficient  Atom+Function         Bfn.  Coefficient  Atom+Function  
  ----- ------------  ---------------      ----- ------------  ---------------
     9      0.597954   1 U  px               12      0.462629   1 U  px        
     6      0.247829   1 U  px              132     -0.089979   6 O  px        
   146     -0.089979   7 O  px              131     -0.066883   6 O  s         
   145      0.066883   7 O  s               136     -0.051386   6 O  px        
   150     -0.051386   7 O  px              135     -0.050013   6 O  s         

 Vector   12  Occ=2.000000D+00  E=-7.637895D-01  Symmetry=b1
              MO Center=  1.1D-12,  1.7D-15, -1.3D-16, r^2= 6.6D+00
   Bfn.  Coefficient  Atom+Function         Bfn.  Coefficient  Atom+Function  
  ----- ------------  ---------------      ----- ------------  ---------------
   133      0.387847   6 O  py              147     -0.387847   7 O  py        
   158     -0.184194   8 H  s               160      0.184194   9 H  s         
   162      0.184194  10 H  s               164     -0.184194  11 H  s         
   137      0.157139   6 O  py              151     -0.157139   7 O  py        
   159     -0.030877   8 H  s               161      0.030877   9 H  s         

 Vector   13  Occ=2.000000D+00  E=-7.618091D-01  Symmetry=b2
              MO Center= -1.1D-12, -4.8D-17, -1.1D-17, r^2= 6.5D+00
   Bfn.  Coefficient  Atom+Function         Bfn.  Coefficient  Atom+Function  
  ----- ------------  ---------------      ----- ------------  ---------------
   133      0.387945   6 O  py              147      0.387945   7 O  py        
   158     -0.185148   8 H  s               160      0.185148   9 H  s         
   162     -0.185148  10 H  s               164      0.185148  11 H  s         
   137      0.152584   6 O  py              151      0.152584   7 O  py        
    10     -0.064009   1 U  py               13     -0.049360   1 U  py        

 Vector   14  Occ=2.000000D+00  E=-7.109447D-01  Symmetry=b1
              MO Center= -6.2D-16,  5.0D-17,  6.4D-15, r^2= 3.2D+00
   Bfn.  Coefficient  Atom+Function         Bfn.  Coefficient  Atom+Function  
  ----- ------------  ---------------      ----- ------------  ---------------
    11      0.475526   1 U  pz               85     -0.339730   2 O  s         
    99      0.339730   3 O  s                14      0.318194   1 U  pz        
    81     -0.291401   2 O  s                95      0.291401   3 O  s         
     8      0.185933   1 U  pz               84     -0.135902   2 O  pz        
    98     -0.135902   3 O  pz               80      0.125982   2 O  s         

 Vector   15  Occ=2.000000D+00  E=-6.592538D-01  Symmetry=a1
              MO Center=  1.9D-16, -6.2D-15,  5.1D-16, r^2= 9.8D+00
   Bfn.  Coefficient  Atom+Function         Bfn.  Coefficient  Atom+Function  
  ----- ------------  ---------------      ----- ------------  ---------------
   108      0.373495   4 I  s               119      0.373495   5 I  s         
   109      0.351207   4 I  s               120      0.351207   5 I  s         
     2     -0.083380   1 U  s                 1     -0.046702   1 U  s         
     4      0.039311   1 U  s                33     -0.039180   1 U  d  0      
    35     -0.034847   1 U  d  2             40      0.025486   1 U  d  2      

 Vector   16  Occ=2.000000D+00  E=-6.494192D-01  Symmetry=b2
              MO Center= -1.3D-15, -5.6D-15, -4.9D-16, r^2= 1.0D+01
   Bfn.  Coefficient  Atom+Function         Bfn.  Coefficient  Atom+Function  
  ----- ------------  ---------------      ----- ------------  ---------------
   108      0.377321   4 I  s               119     -0.377321   5 I  s         
   109      0.354910   4 I  s               120     -0.354910   5 I  s         
    10      0.128921   1 U  py               13      0.081379   1 U  py        
     7      0.049216   1 U  py        

 Vector   17  Occ=2.000000D+00  E=-5.356411D-01  Symmetry=a1
              MO Center= -3.9D-14,  2.8D-15, -1.6D-15, r^2= 5.2D+00
   Bfn.  Coefficient  Atom+Function         Bfn.  Coefficient  Atom+Function  
  ----- ------------  ---------------      ----- ------------  ---------------
   132      0.414593   6 O  px              146     -0.414593   7 O  px        
   136      0.273634   6 O  px              150     -0.273634   7 O  px        
     2      0.214311   1 U  s               135     -0.132093   6 O  s         
   149     -0.132093   7 O  s                 4     -0.121414   1 U  s         
     1      0.114480   1 U  s               158      0.078176   8 H  s         

 Vector   18  Occ=2.000000D+00  E=-4.852809D-01  Symmetry=b3
              MO Center=  4.9D-14, -1.7D-16, -7.9D-15, r^2= 5.0D+00
   Bfn.  Coefficient  Atom+Function         Bfn.  Coefficient  Atom+Function  
  ----- ------------  ---------------      ----- ------------  ---------------
   132      0.414945   6 O  px              146      0.414945   7 O  px        
   136      0.280851   6 O  px              150      0.280851   7 O  px        
     9      0.219463   1 U  px              135     -0.172017   6 O  s         
   149      0.172017   7 O  s                12      0.161283   1 U  px        
    45     -0.132392   1 U  f  1             47      0.110119   1 U  f  3      

 Vector   19  Occ=2.000000D+00  E=-4.588090D-01  Symmetry=b2
              MO Center= -6.6D-13,  7.4D-17, -1.7D-14, r^2= 5.4D+00
   Bfn.  Coefficient  Atom+Function         Bfn.  Coefficient  Atom+Function  
  ----- ------------  ---------------      ----- ------------  ---------------
   134      0.397877   6 O  pz              148     -0.397877   7 O  pz        
   138      0.290135   6 O  pz              152     -0.290135   7 O  pz        
    82      0.160946   2 O  px               96     -0.160946   3 O  px        
    29     -0.097545   1 U  d  1             86      0.096015   2 O  px        
   100     -0.096015   3 O  px               39     -0.066589   1 U  d  1      

 Vector   20  Occ=2.000000D+00  E=-4.490829D-01  Symmetry=b1
              MO Center=  6.8D-13,  4.5D-15, -6.1D-15, r^2= 5.7D+00
   Bfn.  Coefficient  Atom+Function         Bfn.  Coefficient  Atom+Function  
  ----- ------------  ---------------      ----- ------------  ---------------
   134      0.434718   6 O  pz              148      0.434718   7 O  pz        
   138      0.310770   6 O  pz              152      0.310770   7 O  pz        
    44     -0.175810   1 U  f  0             84      0.083581   2 O  pz        
    98      0.083581   3 O  pz               20      0.062700   1 U  pz        
    46      0.061911   1 U  f  2             88      0.040682   2 O  pz        

 Vector   21  Occ=2.000000D+00  E=-4.023572D-01  Symmetry=b3
              MO Center= -1.3D-15, -2.1D-16, -2.1D-13, r^2= 3.5D+00
   Bfn.  Coefficient  Atom+Function         Bfn.  Coefficient  Atom+Function  
  ----- ------------  ---------------      ----- ------------  ---------------
    83      0.404672   2 O  py               97     -0.404672   3 O  py        
    87      0.236478   2 O  py              101     -0.236478   3 O  py        
    27      0.146550   1 U  d -1             32      0.116083   1 U  d -1      
    22      0.072093   1 U  d -1             37      0.055450   1 U  d -1      
   112     -0.051274   4 I  pz              123      0.051274   5 I  pz        

 Vector   22  Occ=2.000000D+00  E=-3.899535D-01  Symmetry=a1
              MO Center= -2.1D-15, -2.8D-14, -2.4D-13, r^2= 4.1D+00
   Bfn.  Coefficient  Atom+Function         Bfn.  Coefficient  Atom+Function  
  ----- ------------  ---------------      ----- ------------  ---------------
    84      0.439781   2 O  pz               98     -0.439781   3 O  pz        
     2      0.286552   1 U  s                88      0.246236   2 O  pz        
   102     -0.246236   3 O  pz                1      0.148365   1 U  s         
    28     -0.148155   1 U  d  0             85      0.121947   2 O  s         
    99      0.121947   3 O  s                23     -0.106413   1 U  d  0      

 Vector   23  Occ=2.000000D+00  E=-3.889784D-01  Symmetry=b2
              MO Center=  3.7D-16,  3.1D-14,  2.2D-13, r^2= 2.9D+00
   Bfn.  Coefficient  Atom+Function         Bfn.  Coefficient  Atom+Function  
  ----- ------------  ---------------      ----- ------------  ---------------
    43      0.404143   1 U  f -1             83      0.393601   2 O  py        
    97      0.393601   3 O  py               87      0.232834   2 O  py        
   101      0.232834   3 O  py               10     -0.139327   1 U  py        
    50      0.101317   1 U  f -1             13     -0.082025   1 U  py        
     7     -0.050524   1 U  py               19      0.047696   1 U  py        

 Vector   24  Occ=2.000000D+00  E=-3.834790D-01  Symmetry=b2
              MO Center= -7.8D-15,  7.1D-17, -2.6D-11, r^2= 4.0D+00
   Bfn.  Coefficient  Atom+Function         Bfn.  Coefficient  Atom+Function  
  ----- ------------  ---------------      ----- ------------  ---------------
    82      0.386643   2 O  px               96     -0.386643   3 O  px        
    86      0.236771   2 O  px              100     -0.236771   3 O  px        
   134     -0.228393   6 O  pz              148      0.228393   7 O  pz        
   138     -0.173542   6 O  pz              152      0.173542   7 O  pz        
    29     -0.115668   1 U  d  1             34     -0.094975   1 U  d  1      

 Vector   25  Occ=2.000000D+00  E=-3.832270D-01  Symmetry=b3
              MO Center=  8.5D-15,  2.0D-16,  2.6D-11, r^2= 3.1D+00
   Bfn.  Coefficient  Atom+Function         Bfn.  Coefficient  Atom+Function  
  ----- ------------  ---------------      ----- ------------  ---------------
    82     -0.387202   2 O  px               96     -0.387202   3 O  px        
    45      0.363757   1 U  f  1             86     -0.233556   2 O  px        
   100     -0.233556   3 O  px                9      0.205731   1 U  px        
    12      0.149569   1 U  px              132      0.099944   6 O  px        
   146      0.099944   7 O  px               52      0.091352   1 U  f  1      

 Vector   26  Occ=2.000000D+00  E=-3.676891D-01  Symmetry=b1
              MO Center= -9.1D-15,  5.6D-15,  2.3D-13, r^2= 2.4D+00
   Bfn.  Coefficient  Atom+Function         Bfn.  Coefficient  Atom+Function  
  ----- ------------  ---------------      ----- ------------  ---------------
    44      0.649049   1 U  f  0             84     -0.287489   2 O  pz        
    98     -0.287489   3 O  pz               11     -0.223068   1 U  pz        
    14     -0.148454   1 U  pz               88     -0.146005   2 O  pz        
   102     -0.146005   3 O  pz              134      0.142298   6 O  pz        
   148      0.142298   7 O  pz               17     -0.121827   1 U  pz        

 Vector   27  Occ=2.000000D+00  E=-3.006852D-01  Symmetry=a1
              MO Center= -2.0D-15,  2.1D-13, -1.1D-15, r^2= 1.0D+01
   Bfn.  Coefficient  Atom+Function         Bfn.  Coefficient  Atom+Function  
  ----- ------------  ---------------      ----- ------------  ---------------
   111      0.354554   4 I  py              122     -0.354554   5 I  py        
     2     -0.310120   1 U  s                 4      0.262097   1 U  s         
   114      0.232284   4 I  py              125     -0.232284   5 I  py        
     1     -0.168365   1 U  s                35     -0.160631   1 U  d  2      
    33     -0.120381   1 U  d  0              3     -0.095775   1 U  s         

 Vector   28  Occ=2.000000D+00  E=-2.684795D-01  Symmetry=b2
              MO Center= -9.3D-14, -2.3D-13, -1.5D-15, r^2= 1.0D+01
   Bfn.  Coefficient  Atom+Function         Bfn.  Coefficient  Atom+Function  
  ----- ------------  ---------------      ----- ------------  ---------------
   111      0.377037   4 I  py              122      0.377037   5 I  py        
   114      0.276508   4 I  py              125      0.276508   5 I  py        
    41      0.230131   1 U  f -3             10      0.195426   1 U  py        
    13      0.143323   1 U  py               16     -0.129976   1 U  py        
    43      0.076820   1 U  f -1              7      0.070421   1 U  py        

 Vector   29  Occ=2.000000D+00  E=-2.682819D-01  Symmetry=b1
              MO Center=  9.4D-14,  9.3D-12, -1.4D-15, r^2= 1.1D+01
   Bfn.  Coefficient  Atom+Function         Bfn.  Coefficient  Atom+Function  
  ----- ------------  ---------------      ----- ------------  ---------------
   110      0.375039   4 I  px              121     -0.375039   5 I  px        
   113      0.315284   4 I  px              124     -0.315284   5 I  px        
    31     -0.112239   1 U  d -2             36     -0.044665   1 U  d -2      
    26     -0.040700   1 U  d -2            133      0.035228   6 O  py        
   147     -0.035228   7 O  py               21     -0.032417   1 U  d -2      

 Vector   30  Occ=2.000000D+00  E=-2.676916D-01  Symmetry=b3
              MO Center= -2.7D-15, -9.4D-12, -4.6D-16, r^2= 1.0D+01
   Bfn.  Coefficient  Atom+Function         Bfn.  Coefficient  Atom+Function  
  ----- ------------  ---------------      ----- ------------  ---------------
   110      0.372208   4 I  px              121      0.372208   5 I  px        
   113      0.300793   4 I  px              124      0.300793   5 I  px        
    47      0.161777   1 U  f  3             61      0.072382   1 U  f  3      
    12     -0.067122   1 U  px                9     -0.055856   1 U  px        
    15      0.049080   1 U  px               45      0.035629   1 U  f  1      

 Vector   31  Occ=2.000000D+00  E=-2.534517D-01  Symmetry=b1
              MO Center= -8.1D-16,  5.2D-14, -2.7D-15, r^2= 1.1D+01
   Bfn.  Coefficient  Atom+Function         Bfn.  Coefficient  Atom+Function  
  ----- ------------  ---------------      ----- ------------  ---------------
   112      0.383197   4 I  pz              123      0.383197   5 I  pz        
   115      0.314681   4 I  pz              126      0.314681   5 I  pz        
    46     -0.148990   1 U  f  2             44      0.094673   1 U  f  0      
    11     -0.073245   1 U  pz               58     -0.048628   1 U  f  0      
    84     -0.046694   2 O  pz               98     -0.046694   3 O  pz        

 Vector   32  Occ=2.000000D+00  E=-2.476386D-01  Symmetry=b3
              MO Center= -2.8D-16, -1.0D-13,  2.6D-15, r^2= 1.1D+01
   Bfn.  Coefficient  Atom+Function         Bfn.  Coefficient  Atom+Function  
  ----- ------------  ---------------      ----- ------------  ---------------
   112      0.391049   4 I  pz              123     -0.391049   5 I  pz        
   115      0.337952   4 I  pz              126     -0.337952   5 I  pz        
    83      0.107190   2 O  py               97     -0.107190   3 O  py        
    87      0.084411   2 O  py              101     -0.084411   3 O  py        
    32     -0.047001   1 U  d -1            118      0.037105   4 I  pz        

 Vector   33  Occ=0.000000D+00  E=-1.452977D-01  Symmetry=a1
              MO Center= -2.4D-15,  2.9D-16, -9.6D-15, r^2= 8.0D-01
   Bfn.  Coefficient  Atom+Function         Bfn.  Coefficient  Atom+Function  
  ----- ------------  ---------------      ----- ------------  ---------------
    42      0.912580   1 U  f -2             49      0.140189   1 U  f -2      
    56      0.088145   1 U  f -2      

 Vector   34  Occ=0.000000D+00  E=-1.436108D-01  Symmetry=b2
              MO Center= -3.9D-15, -2.0D-14, -1.1D-15, r^2= 1.6D+00
   Bfn.  Coefficient  Atom+Function         Bfn.  Coefficient  Atom+Function  
  ----- ------------  ---------------      ----- ------------  ---------------
    41      0.883041   1 U  f -3            114     -0.135386   4 I  py        
   125     -0.135386   5 I  py               48      0.130971   1 U  f -3      
    55      0.109203   1 U  f -3            111     -0.100431   4 I  py        
   122     -0.100431   5 I  py               10     -0.068935   1 U  py        
    43     -0.061489   1 U  f -1             19      0.049993   1 U  py        

 Vector   35  Occ=0.000000D+00  E=-1.410820D-01  Symmetry=b1
              MO Center= -3.1D-15, -4.1D-16, -4.7D-15, r^2= 1.3D+00
   Bfn.  Coefficient  Atom+Function         Bfn.  Coefficient  Atom+Function  
  ----- ------------  ---------------      ----- ------------  ---------------
    46      0.902238   1 U  f  2             53      0.141333   1 U  f  2      
   115      0.099066   4 I  pz              126      0.099066   5 I  pz        
   112      0.080258   4 I  pz              123      0.080258   5 I  pz        
    60      0.076987   1 U  f  2            134     -0.061678   6 O  pz        
   148     -0.061678   7 O  pz              138     -0.054165   6 O  pz        

 Vector   36  Occ=0.000000D+00  E=-1.342633D-01  Symmetry=b3
              MO Center= -1.3D-15, -1.5D-14, -9.2D-16, r^2= 1.7D+00
   Bfn.  Coefficient  Atom+Function         Bfn.  Coefficient  Atom+Function  
  ----- ------------  ---------------      ----- ------------  ---------------
    47      0.881971   1 U  f  3             15      0.133739   1 U  px        
    54      0.126290   1 U  f  3            113     -0.125561   4 I  px        
   124     -0.125561   5 I  px               45      0.113259   1 U  f  1      
    12     -0.102167   1 U  px              110     -0.099601   4 I  px        
   121     -0.099601   5 I  px               61      0.092434   1 U  f  3      

 Vector   37  Occ=0.000000D+00  E=-7.079554D-02  Symmetry=b2
              MO Center= -1.0D-15, -2.1D-14,  1.3D-14, r^2= 2.1D+00
   Bfn.  Coefficient  Atom+Function         Bfn.  Coefficient  Atom+Function  
  ----- ------------  ---------------      ----- ------------  ---------------
    43      0.841034   1 U  f -1             83     -0.246203   2 O  py        
    97     -0.246203   3 O  py               87     -0.198575   2 O  py        
   101     -0.198575   3 O  py               19     -0.165710   1 U  py        
    50      0.119873   1 U  f -1            114     -0.105420   4 I  py        
   125     -0.105420   5 I  py              109     -0.092454   4 I  s         

 Vector   38  Occ=0.000000D+00  E=-6.674668D-02  Symmetry=b3
              MO Center= -1.0D-14, -1.6D-15, -1.5D-15, r^2= 2.2D+00
   Bfn.  Coefficient  Atom+Function         Bfn.  Coefficient  Atom+Function  
  ----- ------------  ---------------      ----- ------------  ---------------
    45      0.832568   1 U  f  1             18      0.339467   1 U  px        
    82      0.222499   2 O  px               96      0.222499   3 O  px        
    86      0.180028   2 O  px              100      0.180028   3 O  px        
    47     -0.158739   1 U  f  3             15     -0.145344   1 U  px        
    52      0.113931   1 U  f  1            135     -0.094304   6 O  s         

 Vector   39  Occ=0.000000D+00  E=-3.363613D-02  Symmetry=a1
              MO Center= -1.9D-13,  1.1D-13,  4.6D-16, r^2= 1.4D+01
   Bfn.  Coefficient  Atom+Function         Bfn.  Coefficient  Atom+Function  
  ----- ------------  ---------------      ----- ------------  ---------------
     5      1.661504   1 U  s                 4     -0.739410   1 U  s         
   135     -0.379596   6 O  s               149     -0.379596   7 O  s         
    38     -0.365754   1 U  d  0            109     -0.250181   4 I  s         
   120     -0.250181   5 I  s                 2     -0.200758   1 U  s         
    40      0.186916   1 U  d  2            159      0.136726   8 H  s         

 Vector   40  Occ=0.000000D+00  E=-2.703177D-02  Symmetry=b1
              MO Center=  1.4D-14, -9.9D-14,  2.0D-16, r^2= 4.8D+00
   Bfn.  Coefficient  Atom+Function         Bfn.  Coefficient  Atom+Function  
  ----- ------------  ---------------      ----- ------------  ---------------
    31      0.528494   1 U  d -2             36      0.432083   1 U  d -2      
    26      0.286805   1 U  d -2            113      0.206787   4 I  px        
   124     -0.206787   5 I  px              116      0.204438   4 I  px        
   127     -0.204438   5 I  px               21      0.174994   1 U  d -2      
   159      0.123707   8 H  s               161     -0.123707   9 H  s         

 Vector   41  Occ=0.000000D+00  E=-8.443174D-03  Symmetry=b3
              MO Center=  1.4D-13,  9.6D-15, -1.7D-15, r^2= 1.3D+01
   Bfn.  Coefficient  Atom+Function         Bfn.  Coefficient  Atom+Function  
  ----- ------------  ---------------      ----- ------------  ---------------
    18      1.142868   1 U  px               15     -0.520546   1 U  px        
   135     -0.366337   6 O  s               149      0.366337   7 O  s         
   113     -0.221941   4 I  px              124     -0.221941   5 I  px        
    45     -0.202441   1 U  f  1            159      0.195699   8 H  s         
   161      0.195699   9 H  s               163     -0.195699  10 H  s         

 Vector   42  Occ=0.000000D+00  E= 1.632711D-02  Symmetry=b2
              MO Center= -3.9D-15, -1.0D-13,  4.2D-16, r^2= 2.1D+01
   Bfn.  Coefficient  Atom+Function         Bfn.  Coefficient  Atom+Function  
  ----- ------------  ---------------      ----- ------------  ---------------
    19      1.439939   1 U  py              117      0.469575   4 I  py        
   128      0.469575   5 I  py               16     -0.465169   1 U  py        
   109      0.436294   4 I  s               120     -0.436294   5 I  s         
   159     -0.150484   8 H  s               161      0.150484   9 H  s         
   163     -0.150484  10 H  s               165      0.150484  11 H  s         

 Vector   43  Occ=0.000000D+00  E= 3.238918D-02  Symmetry=a1
              MO Center=  2.2D-14,  1.1D-12, -3.3D-15, r^2= 2.8D+01
   Bfn.  Coefficient  Atom+Function         Bfn.  Coefficient  Atom+Function  
  ----- ------------  ---------------      ----- ------------  ---------------
     4      1.213631   1 U  s               117     -0.880931   4 I  py        
   128      0.880931   5 I  py                5      0.321486   1 U  s         
   109     -0.302711   4 I  s               120     -0.302711   5 I  s         
     3     -0.265830   1 U  s                40     -0.228650   1 U  d  2      
    33     -0.205876   1 U  d  0             38      0.193939   1 U  d  0      

 Vector   44  Occ=0.000000D+00  E= 3.349717D-02  Symmetry=b1
              MO Center= -1.9D-14, -3.4D-14, -1.2D-13, r^2= 1.3D+01
   Bfn.  Coefficient  Atom+Function         Bfn.  Coefficient  Atom+Function  
  ----- ------------  ---------------      ----- ------------  ---------------
    20      1.158187   1 U  pz               17     -0.771079   1 U  pz        
    44      0.379250   1 U  f  0             11      0.230557   1 U  pz        
    14      0.200427   1 U  pz              115     -0.176092   4 I  pz        
   126     -0.176092   5 I  pz              118      0.156340   4 I  pz        
   129      0.156340   5 I  pz               84      0.138374   2 O  pz        

 Vector   45  Occ=0.000000D+00  E= 4.145456D-02  Symmetry=b1
              MO Center=  4.5D-16, -4.8D-15, -3.8D-15, r^2= 2.3D+01
   Bfn.  Coefficient  Atom+Function         Bfn.  Coefficient  Atom+Function  
  ----- ------------  ---------------      ----- ------------  ---------------
   116      0.915187   4 I  px              127     -0.915187   5 I  px        
   113     -0.349404   4 I  px              124      0.349404   5 I  px        
   159      0.229037   8 H  s               161     -0.229037   9 H  s         
   163     -0.229037  10 H  s               165      0.229037  11 H  s         
   137      0.152714   6 O  py              151     -0.152714   7 O  py        

 Vector   46  Occ=0.000000D+00  E= 5.915279D-02  Symmetry=b3
              MO Center= -5.1D-16,  2.5D-14, -7.7D-15, r^2= 2.6D+01
   Bfn.  Coefficient  Atom+Function         Bfn.  Coefficient  Atom+Function  
  ----- ------------  ---------------      ----- ------------  ---------------
   118      1.075600   4 I  pz              129     -1.075600   5 I  pz        
    37      0.425450   1 U  d -1            115     -0.280045   4 I  pz        
   126      0.280045   5 I  pz              112     -0.104298   4 I  pz        
   123      0.104298   5 I  pz               27      0.094384   1 U  d -1      
    32      0.063997   1 U  d -1             87     -0.064161   2 O  py        

 Vector   47  Occ=0.000000D+00  E= 6.565063D-02  Symmetry=b1
              MO Center=  2.2D-15,  6.7D-17,  8.0D-14, r^2= 8.2D+00
   Bfn.  Coefficient  Atom+Function         Bfn.  Coefficient  Atom+Function  
  ----- ------------  ---------------      ----- ------------  ---------------
    44      0.488073   1 U  f  0            118     -0.447072   4 I  pz        
   129     -0.447072   5 I  pz               11      0.406455   1 U  pz        
    14      0.374993   1 U  pz               84      0.324446   2 O  pz        
    98      0.324446   3 O  pz               88      0.296082   2 O  pz        
   102      0.296082   3 O  pz               58      0.289939   1 U  f  0      

 Vector   48  Occ=0.000000D+00  E= 6.671915D-02  Symmetry=b2
              MO Center=  2.5D-14, -1.2D-12,  2.0D-16, r^2= 2.8D+01
   Bfn.  Coefficient  Atom+Function         Bfn.  Coefficient  Atom+Function  
  ----- ------------  ---------------      ----- ------------  ---------------
   117      1.049843   4 I  py              128      1.049843   5 I  py        
    19     -0.842453   1 U  py               16      0.646823   1 U  py        
   114     -0.302898   4 I  py              125     -0.302898   5 I  py        
   159      0.210549   8 H  s               161     -0.210549   9 H  s         
   163      0.210549  10 H  s               165     -0.210549  11 H  s         

 Vector   49  Occ=0.000000D+00  E= 6.720203D-02  Symmetry=b3
              MO Center= -3.7D-14, -1.1D-12, -2.2D-15, r^2= 2.8D+01
   Bfn.  Coefficient  Atom+Function         Bfn.  Coefficient  Atom+Function  
  ----- ------------  ---------------      ----- ------------  ---------------
    18      1.595373   1 U  px              116     -1.302649   4 I  px        
   127     -1.302649   5 I  px              113      0.248192   4 I  px        
   124      0.248192   5 I  px               15     -0.176502   1 U  px        
    61      0.168809   1 U  f  3            135     -0.089559   6 O  s         
   149      0.089559   7 O  s               110      0.083968   4 I  px        

 Vector   50  Occ=0.000000D+00  E= 7.852242D-02  Symmetry=a1
              MO Center= -1.8D-13,  1.1D-13,  4.1D-14, r^2= 1.3D+01
   Bfn.  Coefficient  Atom+Function         Bfn.  Coefficient  Atom+Function  
  ----- ------------  ---------------      ----- ------------  ---------------
     4      2.174725   1 U  s                 5     -1.652250   1 U  s         
    38     -0.653214   1 U  d  0             35     -0.629595   1 U  d  2      
    40      0.542070   1 U  d  2            114     -0.383933   4 I  py        
   125      0.383933   5 I  py              135     -0.369910   6 O  s         
   149     -0.369910   7 O  s                 3     -0.364977   1 U  s         

 Vector   51  Occ=0.000000D+00  E= 8.064294D-02  Symmetry=b1
              MO Center= -1.8D-16,  3.6D-15,  2.6D-14, r^2= 2.5D+01
   Bfn.  Coefficient  Atom+Function         Bfn.  Coefficient  Atom+Function  
  ----- ------------  ---------------      ----- ------------  ---------------
    20      1.937288   1 U  pz              118     -1.224192   4 I  pz        
   129     -1.224192   5 I  pz               17     -0.452885   1 U  pz        
    58     -0.304510   1 U  f  0            115      0.150243   4 I  pz        
   126      0.150243   5 I  pz               11     -0.125361   1 U  pz        
    85      0.122289   2 O  s                99     -0.122289   3 O  s         

 Vector   52  Occ=0.000000D+00  E= 9.308071D-02  Symmetry=b2
              MO Center=  1.0D-14,  1.2D-14, -6.5D-14, r^2= 1.2D+01
   Bfn.  Coefficient  Atom+Function         Bfn.  Coefficient  Atom+Function  
  ----- ------------  ---------------      ----- ------------  ---------------
    39      1.346001   1 U  d  1             34     -0.515761   1 U  d  1      
    29      0.137954   1 U  d  1            134      0.136694   6 O  pz        
   148     -0.136694   7 O  pz               82      0.115615   2 O  px        
    96     -0.115615   3 O  px              138      0.104943   6 O  pz        
   152     -0.104943   7 O  pz               19     -0.096755   1 U  py        

 Vector   53  Occ=0.000000D+00  E= 1.019051D-01  Symmetry=a1
              MO Center= -1.2D-13,  1.1D-13,  9.1D-14, r^2= 1.4D+01
   Bfn.  Coefficient  Atom+Function         Bfn.  Coefficient  Atom+Function  
  ----- ------------  ---------------      ----- ------------  ---------------
     4      0.874853   1 U  s                38      0.739896   1 U  d  0      
    33     -0.651543   1 U  d  0            114     -0.602064   4 I  py        
   125      0.602064   5 I  py              117      0.549994   4 I  py        
   128     -0.549994   5 I  py                3     -0.499865   1 U  s         
    35     -0.435894   1 U  d  2              5     -0.354777   1 U  s         

 Vector   54  Occ=0.000000D+00  E= 1.154780D-01  Symmetry=b3
              MO Center= -1.1D-14, -5.2D-14,  7.5D-14, r^2= 5.2D+00
   Bfn.  Coefficient  Atom+Function         Bfn.  Coefficient  Atom+Function  
  ----- ------------  ---------------      ----- ------------  ---------------
    37      0.582822   1 U  d -1             32      0.566577   1 U  d -1      
    87     -0.362036   2 O  py              101      0.362036   3 O  py        
   115      0.312810   4 I  pz              126     -0.312810   5 I  pz        
    83     -0.280805   2 O  py               97      0.280805   3 O  py        
    27      0.271793   1 U  d -1             18      0.164129   1 U  px        

 Vector   55  Occ=0.000000D+00  E= 1.245452D-01  Symmetry=b1
              MO Center= -4.9D-13,  1.2D-12, -6.9D-14, r^2= 1.7D+01
   Bfn.  Coefficient  Atom+Function         Bfn.  Coefficient  Atom+Function  
  ----- ------------  ---------------      ----- ------------  ---------------
    36      1.687646   1 U  d -2            116      0.834928   4 I  px        
   127     -0.834928   5 I  px               31     -0.795251   1 U  d -2      
   159     -0.410313   8 H  s               161      0.410313   9 H  s         
   163      0.410313  10 H  s               165     -0.410313  11 H  s         
   137     -0.284001   6 O  py              151      0.284001   7 O  py        

 Vector   56  Occ=0.000000D+00  E= 1.377739D-01  Symmetry=b2
              MO Center= -1.8D-15,  5.3D-15,  5.0D-14, r^2= 3.0D+00
   Bfn.  Coefficient  Atom+Function         Bfn.  Coefficient  Atom+Function  
  ----- ------------  ---------------      ----- ------------  ---------------
    34      0.905094   1 U  d  1             29      0.348223   1 U  d  1      
    86      0.336367   2 O  px              100     -0.336367   3 O  px        
    39     -0.329977   1 U  d  1             82      0.263890   2 O  px        
    96     -0.263890   3 O  px               24      0.211712   1 U  d  1      
   134      0.103165   6 O  pz              138      0.103651   6 O  pz        

 Vector   57  Occ=0.000000D+00  E= 1.479252D-01  Symmetry=a1
              MO Center=  5.8D-12,  9.0D-13,  3.5D-14, r^2= 1.5D+01
   Bfn.  Coefficient  Atom+Function         Bfn.  Coefficient  Atom+Function  
  ----- ------------  ---------------      ----- ------------  ---------------
    40      2.603826   1 U  d  2            109      1.022667   4 I  s         
   120      1.022667   5 I  s                35     -0.851404   1 U  d  2      
    38      0.847202   1 U  d  0            117     -0.524629   4 I  py        
   128      0.524629   5 I  py              114      0.347130   4 I  py        
   125     -0.347130   5 I  py              159     -0.339573   8 H  s         

 Vector   58  Occ=0.000000D+00  E= 1.542715D-01  Symmetry=b3
              MO Center= -5.5D-12, -8.6D-14,  5.6D-14, r^2= 1.3D+01
   Bfn.  Coefficient  Atom+Function         Bfn.  Coefficient  Atom+Function  
  ----- ------------  ---------------      ----- ------------  ---------------
    18      2.252431   1 U  px              159     -0.932065   8 H  s         
   161     -0.932065   9 H  s               163      0.932065  10 H  s         
   165      0.932065  11 H  s                15     -0.720545   1 U  px        
   135      0.689718   6 O  s               149     -0.689718   7 O  s         
    61     -0.613530   1 U  f  3            116     -0.444509   4 I  px        

 Vector   59  Occ=0.000000D+00  E= 1.682333D-01  Symmetry=b3
              MO Center= -7.2D-14, -5.1D-14, -1.8D-13, r^2= 1.3D+01
   Bfn.  Coefficient  Atom+Function         Bfn.  Coefficient  Atom+Function  
  ----- ------------  ---------------      ----- ------------  ---------------
    37      2.060648   1 U  d -1             32     -0.989812   1 U  d -1      
   118      0.659817   4 I  pz              129     -0.659817   5 I  pz        
   115      0.220075   4 I  pz              126     -0.220075   5 I  pz        
    18     -0.208211   1 U  px               22     -0.163385   1 U  d -1      
    27     -0.100039   1 U  d -1             15      0.088560   1 U  px        

 Vector   60  Occ=0.000000D+00  E= 1.686172D-01  Symmetry=a1
              MO Center=  9.1D-14,  4.4D-14,  5.7D-14, r^2= 6.9D+00
   Bfn.  Coefficient  Atom+Function         Bfn.  Coefficient  Atom+Function  
  ----- ------------  ---------------      ----- ------------  ---------------
     4      2.562850   1 U  s                 5     -1.199631   1 U  s         
    35      0.895392   1 U  d  2              3     -0.686820   1 U  s         
    38      0.583494   1 U  d  0            135     -0.409010   6 O  s         
   149     -0.409010   7 O  s                85     -0.354688   2 O  s         
    99     -0.354688   3 O  s               136      0.317069   6 O  px        

 Vector   61  Occ=0.000000D+00  E= 1.820919D-01  Symmetry=b2
              MO Center=  1.0D-12, -2.9D-12,  1.6D-13, r^2= 1.3D+01
   Bfn.  Coefficient  Atom+Function         Bfn.  Coefficient  Atom+Function  
  ----- ------------  ---------------      ----- ------------  ---------------
    19      1.180874   1 U  py              159      1.119669   8 H  s         
   161     -1.119669   9 H  s               163      1.119669  10 H  s         
   165     -1.119669  11 H  s                16     -0.690830   1 U  py        
   137      0.590772   6 O  py              151      0.590772   7 O  py        
   117     -0.296819   4 I  py              128     -0.296819   5 I  py        

 Vector   62  Occ=0.000000D+00  E= 2.196337D-01  Symmetry=a1
              MO Center=  1.1D-13,  7.3D-15,  5.3D-13, r^2= 7.0D+00
   Bfn.  Coefficient  Atom+Function         Bfn.  Coefficient  Atom+Function  
  ----- ------------  ---------------      ----- ------------  ---------------
    56      1.037412   1 U  f -2             38     -0.495965   1 U  d  0      
   159     -0.349243   8 H  s               161     -0.349243   9 H  s         
   163     -0.349243  10 H  s               165     -0.349243  11 H  s         
     5      0.312199   1 U  s               135      0.251156   6 O  s         
   149      0.251156   7 O  s                42     -0.215410   1 U  f -2      

 Vector   63  Occ=0.000000D+00  E= 2.275361D-01  Symmetry=b1
              MO Center= -1.7D-15,  1.7D-14,  3.2D-13, r^2= 8.8D+00
   Bfn.  Coefficient  Atom+Function         Bfn.  Coefficient  Atom+Function  
  ----- ------------  ---------------      ----- ------------  ---------------
    17      2.486399   1 U  pz               20     -1.553336   1 U  pz        
    85     -0.711710   2 O  s                99      0.711710   3 O  s         
    58     -0.563903   1 U  f  0            118      0.461668   4 I  pz        
   129      0.461668   5 I  pz               88      0.455672   2 O  pz        
   102      0.455672   3 O  pz              115     -0.380438   4 I  pz        

 Vector   64  Occ=0.000000D+00  E= 2.376419D-01  Symmetry=b3
              MO Center=  1.3D-12, -8.5D-14, -2.7D-14, r^2= 8.2D+00
   Bfn.  Coefficient  Atom+Function         Bfn.  Coefficient  Atom+Function  
  ----- ------------  ---------------      ----- ------------  ---------------
    15      1.790553   1 U  px               61      0.644974   1 U  f  3      
    12     -0.634655   1 U  px              159     -0.600240   8 H  s         
   161     -0.600240   9 H  s               163      0.600240  10 H  s         
   165      0.600240  11 H  s               135      0.499680   6 O  s         
   149     -0.499680   7 O  s               113     -0.426021   4 I  px        

 Vector   65  Occ=0.000000D+00  E= 2.405680D-01  Symmetry=b2
              MO Center=  2.8D-13, -2.7D-12,  4.1D-15, r^2= 7.8D+00
   Bfn.  Coefficient  Atom+Function         Bfn.  Coefficient  Atom+Function  
  ----- ------------  ---------------      ----- ------------  ---------------
    16      2.571618   1 U  py               13     -0.825886   1 U  py        
    19     -0.665338   1 U  py              114      0.668129   4 I  py        
   125      0.668129   5 I  py               55      0.482097   1 U  f -3      
   159      0.408823   8 H  s               161     -0.408823   9 H  s         
   163      0.408823  10 H  s               165     -0.408823  11 H  s         

 Vector   66  Occ=0.000000D+00  E= 2.443374D-01  Symmetry=a1
              MO Center= -1.2D-12,  3.5D-12,  6.8D-14, r^2= 1.2D+01
   Bfn.  Coefficient  Atom+Function         Bfn.  Coefficient  Atom+Function  
  ----- ------------  ---------------      ----- ------------  ---------------
    38      1.636781   1 U  d  0            159      1.295394   8 H  s         
   161      1.295394   9 H  s               163      1.295394  10 H  s         
   165      1.295394  11 H  s                 5     -1.168304   1 U  s         
    40     -0.935923   1 U  d  2            135     -0.929133   6 O  s         
   149     -0.929133   7 O  s                33     -0.608760   1 U  d  0      

 Vector   67  Occ=0.000000D+00  E= 2.706945D-01  Symmetry=b1
              MO Center= -4.1D-13, -2.5D-13, -6.5D-13, r^2= 1.2D+01
   Bfn.  Coefficient  Atom+Function         Bfn.  Coefficient  Atom+Function  
  ----- ------------  ---------------      ----- ------------  ---------------
    36      2.363048   1 U  d -2            159      1.445667   8 H  s         
   161     -1.445667   9 H  s               163     -1.445667  10 H  s         
   165      1.445667  11 H  s                31     -0.691618   1 U  d -2      
   137      0.614874   6 O  py              151     -0.614874   7 O  py        
   113      0.427763   4 I  px              124     -0.427763   5 I  px        

 Vector   68  Occ=0.000000D+00  E= 3.121786D-01  Symmetry=b1
              MO Center= -2.6D-14,  6.8D-14,  1.4D-13, r^2= 7.3D+00
   Bfn.  Coefficient  Atom+Function         Bfn.  Coefficient  Atom+Function  
  ----- ------------  ---------------      ----- ------------  ---------------
    60      1.387163   1 U  f  2             17      0.687905   1 U  pz        
    20     -0.488717   1 U  pz              115      0.404217   4 I  pz        
   126      0.404217   5 I  pz              138     -0.254050   6 O  pz        
   152     -0.254050   7 O  pz               46     -0.198357   1 U  f  2      
    53     -0.190467   1 U  f  2             36     -0.180113   1 U  d -2      

 Vector   69  Occ=0.000000D+00  E= 3.303272D-01  Symmetry=b2
              MO Center= -4.4D-13, -4.6D-13,  4.7D-14, r^2= 9.5D+00
   Bfn.  Coefficient  Atom+Function         Bfn.  Coefficient  Atom+Function  
  ----- ------------  ---------------      ----- ------------  ---------------
    16      2.034993   1 U  py               55     -1.534310   1 U  f -3      
   114      0.952673   4 I  py              125      0.952673   5 I  py        
    57      0.645273   1 U  f -1            159     -0.635302   8 H  s         
   161      0.635302   9 H  s               163     -0.635302  10 H  s         
   165      0.635302  11 H  s               109      0.623300   4 I  s         

 Vector   70  Occ=0.000000D+00  E= 3.334332D-01  Symmetry=b3
              MO Center= -1.3D-13,  5.0D-13, -8.1D-14, r^2= 9.8D+00
   Bfn.  Coefficient  Atom+Function         Bfn.  Coefficient  Atom+Function  
  ----- ------------  ---------------      ----- ------------  ---------------
    15      1.682492   1 U  px               18     -1.600209   1 U  px        
    59     -1.058280   1 U  f  1             61     -1.016259   1 U  f  3      
   135     -0.656027   6 O  s               149      0.656027   7 O  s         
   113      0.490107   4 I  px              124      0.490107   5 I  px        
   159      0.457216   8 H  s               161      0.457216   9 H  s         

 Vector   71  Occ=0.000000D+00  E= 3.674452D-01  Symmetry=b2
              MO Center= -2.3D-16, -1.1D-11, -4.3D-14, r^2= 1.6D+01
   Bfn.  Coefficient  Atom+Function         Bfn.  Coefficient  Atom+Function  
  ----- ------------  ---------------      ----- ------------  ---------------
    57      1.770817   1 U  f -1            114     -1.481179   4 I  py        
   125     -1.481179   5 I  py              109     -1.415341   4 I  s         
   120      1.415341   5 I  s                55      1.246870   1 U  f -3      
    16     -1.155895   1 U  py               19     -1.095565   1 U  py        
   117      0.755328   4 I  py              128      0.755328   5 I  py        

 Vector   72  Occ=0.000000D+00  E= 3.738657D-01  Symmetry=a1
              MO Center=  3.4D-13,  1.1D-11,  2.3D-12, r^2= 7.3D+00
   Bfn.  Coefficient  Atom+Function         Bfn.  Coefficient  Atom+Function  
  ----- ------------  ---------------      ----- ------------  ---------------
    33      2.873141   1 U  d  0              4      2.850447   1 U  s         
    85     -1.899553   2 O  s                99     -1.899553   3 O  s         
     5     -1.050757   1 U  s                 3     -0.648868   1 U  s         
    38     -0.635863   1 U  d  0             88      0.637947   2 O  pz        
   102     -0.637947   3 O  pz                2      0.561385   1 U  s         

 Vector   73  Occ=0.000000D+00  E= 4.105741D-01  Symmetry=b1
              MO Center= -2.2D-14,  2.5D-15, -2.4D-12, r^2= 9.4D+00
   Bfn.  Coefficient  Atom+Function         Bfn.  Coefficient  Atom+Function  
  ----- ------------  ---------------      ----- ------------  ---------------
    17      3.158763   1 U  pz               58      2.174597   1 U  f  0      
    85     -1.955055   2 O  s                99      1.955055   3 O  s         
    20     -0.970375   1 U  pz              115      0.432834   4 I  pz        
   126      0.432834   5 I  pz               14     -0.412804   1 U  pz        
    84     -0.165339   2 O  pz               98     -0.165339   3 O  pz        

 Vector   74  Occ=0.000000D+00  E= 5.253123D-01  Symmetry=b3
              MO Center=  6.3D-12, -1.5D-13, -1.4D-14, r^2= 8.2D+00
   Bfn.  Coefficient  Atom+Function         Bfn.  Coefficient  Atom+Function  
  ----- ------------  ---------------      ----- ------------  ---------------
    15      3.048490   1 U  px               59      2.513738   1 U  f  1      
    61     -2.146641   1 U  f  3            159     -1.180602   8 H  s         
   161     -1.180602   9 H  s               163      1.180602  10 H  s         
   165      1.180602  11 H  s                12     -1.121031   1 U  px        
    18      1.058677   1 U  px              135     -0.988195   6 O  s         

 Vector   75  Occ=0.000000D+00  E= 5.367377D-01  Symmetry=a1
              MO Center= -6.4D-12,  8.4D-13, -8.6D-14, r^2= 8.1D+00
   Bfn.  Coefficient  Atom+Function         Bfn.  Coefficient  Atom+Function  
  ----- ------------  ---------------      ----- ------------  ---------------
    35      3.054557   1 U  d  2             33     -1.830818   1 U  d  0      
    30     -1.503879   1 U  d  2            114      0.858708   4 I  py        
   125     -0.858708   5 I  py              135     -0.798421   6 O  s         
   149     -0.798421   7 O  s                85      0.695089   2 O  s         
    99      0.695089   3 O  s                28      0.559014   1 U  d  0      

 Vector   76  Occ=0.000000D+00  E= 5.758330D-01  Symmetry=b2
              MO Center=  1.4D-15, -1.3D-15, -8.9D-14, r^2= 5.4D+00
   Bfn.  Coefficient  Atom+Function         Bfn.  Coefficient  Atom+Function  
  ----- ------------  ---------------      ----- ------------  ---------------
    34      2.478505   1 U  d  1             29     -1.533631   1 U  d  1      
    39     -0.878842   1 U  d  1             86      0.178437   2 O  px        
   100     -0.178437   3 O  px              138      0.143261   6 O  pz        
   152     -0.143261   7 O  pz              134      0.079959   6 O  pz        
   148     -0.079959   7 O  pz               82      0.068626   2 O  px        

 Vector   77  Occ=0.000000D+00  E= 5.873004D-01  Symmetry=b1
              MO Center=  1.1D-14,  2.2D-14,  1.2D-14, r^2= 6.4D+00
   Bfn.  Coefficient  Atom+Function         Bfn.  Coefficient  Atom+Function  
  ----- ------------  ---------------      ----- ------------  ---------------
    31      2.575105   1 U  d -2             36     -1.754649   1 U  d -2      
    26     -1.635785   1 U  d -2            116     -0.466687   4 I  px        
   127      0.466687   5 I  px              159     -0.292899   8 H  s         
   161      0.292899   9 H  s               163      0.292899  10 H  s         
   165     -0.292899  11 H  s               137     -0.168516   6 O  py        

 Vector   78  Occ=0.000000D+00  E= 5.887734D-01  Symmetry=b3
              MO Center=  9.3D-18, -1.1D-15, -1.6D-14, r^2= 6.8D+00
   Bfn.  Coefficient  Atom+Function         Bfn.  Coefficient  Atom+Function  
  ----- ------------  ---------------      ----- ------------  ---------------
    32      2.729842   1 U  d -1             27     -1.582955   1 U  d -1      
    37     -1.509104   1 U  d -1            118     -0.479385   4 I  pz        
   129      0.479385   5 I  pz               87     -0.230528   2 O  py        
   101      0.230528   3 O  py              115      0.177683   4 I  pz        
   126     -0.177683   5 I  pz               22     -0.075455   1 U  d -1      

 Vector   79  Occ=0.000000D+00  E= 6.106064D-01  Symmetry=a1
              MO Center= -2.1D-13,  3.2D-13,  3.8D-14, r^2= 9.5D+00
   Bfn.  Coefficient  Atom+Function         Bfn.  Coefficient  Atom+Function  
  ----- ------------  ---------------      ----- ------------  ---------------
     4      2.187872   1 U  s                33     -1.825273   1 U  d  0      
    28      1.718265   1 U  d  0              3     -1.246090   1 U  s         
   114     -1.161926   4 I  py              125      1.161926   5 I  py        
     2      1.063846   1 U  s                35     -0.699340   1 U  d  2      
    88      0.609486   2 O  pz              102     -0.609486   3 O  pz        

 Vector   80  Occ=0.000000D+00  E= 7.550943D-01  Symmetry=b1
              MO Center= -4.3D-16, -1.3D-14,  3.1D-13, r^2= 5.9D+00
   Bfn.  Coefficient  Atom+Function         Bfn.  Coefficient  Atom+Function  
  ----- ------------  ---------------      ----- ------------  ---------------
    17      1.906886   1 U  pz               51      1.874244   1 U  f  0      
    85     -1.759875   2 O  s                99      1.759875   3 O  s         
    14      1.400823   1 U  pz               88      1.362228   2 O  pz        
   102      1.362228   3 O  pz               20     -0.928585   1 U  pz        
    58     -0.708479   1 U  f  0             53     -0.409048   1 U  f  2      

 Vector   81  Occ=0.000000D+00  E= 7.756609D-01  Symmetry=b3
              MO Center= -4.8D-13, -3.5D-14,  2.3D-16, r^2= 9.2D+00
   Bfn.  Coefficient  Atom+Function         Bfn.  Coefficient  Atom+Function  
  ----- ------------  ---------------      ----- ------------  ---------------
    18     -0.740124   1 U  px               12      0.730752   1 U  px        
     9     -0.606249   1 U  px              136      0.575265   6 O  px        
   150      0.575265   7 O  px              158     -0.537536   8 H  s         
   160     -0.537536   9 H  s               162      0.537536  10 H  s         
   164      0.537536  11 H  s                61      0.493035   1 U  f  3      

 Vector   82  Occ=0.000000D+00  E= 8.047793D-01  Symmetry=a1
              MO Center=  3.6D-13,  7.3D-14, -2.7D-14, r^2= 9.0D+00
   Bfn.  Coefficient  Atom+Function         Bfn.  Coefficient  Atom+Function  
  ----- ------------  ---------------      ----- ------------  ---------------
     4      1.707776   1 U  s                35      1.077875   1 U  d  2      
    40     -0.912619   1 U  d  2            136      0.791463   6 O  px        
   150     -0.791463   7 O  px                5     -0.742738   1 U  s         
    33     -0.516167   1 U  d  0             88      0.467815   2 O  pz        
   102     -0.467815   3 O  pz              158     -0.468148   8 H  s         

 Vector   83  Occ=0.000000D+00  E= 8.164148D-01  Symmetry=b3
              MO Center=  7.9D-14, -6.4D-13,  2.2D-16, r^2= 1.5D+01
   Bfn.  Coefficient  Atom+Function         Bfn.  Coefficient  Atom+Function  
  ----- ------------  ---------------      ----- ------------  ---------------
   113      1.408342   4 I  px              124      1.408342   5 I  px        
   110     -1.024180   4 I  px              121     -1.024180   5 I  px        
   116     -0.685035   4 I  px              127     -0.685035   5 I  px        
    15     -0.536783   1 U  px               18      0.341108   1 U  px        
    59     -0.229615   1 U  f  1             54     -0.214032   1 U  f  3      

 Vector   84  Occ=0.000000D+00  E= 8.280132D-01  Symmetry=b1
              MO Center=  4.6D-15,  7.2D-13,  4.9D-16, r^2= 1.6D+01
   Bfn.  Coefficient  Atom+Function         Bfn.  Coefficient  Atom+Function  
  ----- ------------  ---------------      ----- ------------  ---------------
   113      1.553649   4 I  px              124     -1.553649   5 I  px        
   110     -1.063184   4 I  px              121      1.063184   5 I  px        
    36      0.554255   1 U  d -2            116     -0.475957   4 I  px        
   127      0.475957   5 I  px              137     -0.148377   6 O  py        
   151      0.148377   7 O  py              159      0.115012   8 H  s         

 Vector   85  Occ=0.000000D+00  E= 8.306515D-01  Symmetry=b1
              MO Center=  1.0D-16,  1.2D-15,  1.1D-14, r^2= 1.7D+01
   Bfn.  Coefficient  Atom+Function         Bfn.  Coefficient  Atom+Function  
  ----- ------------  ---------------      ----- ------------  ---------------
   115      1.544959   4 I  pz              126      1.544959   5 I  pz        
   112     -1.034760   4 I  pz              123     -1.034760   5 I  pz        
    17     -1.019977   1 U  pz               20      0.877596   1 U  pz        
   118     -0.814813   4 I  pz              129     -0.814813   5 I  pz        
    85      0.508735   2 O  s                99     -0.508735   3 O  s         

 Vector   86  Occ=0.000000D+00  E= 8.307915D-01  Symmetry=b3
              MO Center=  3.2D-15,  3.4D-14,  5.3D-16, r^2= 1.5D+01
   Bfn.  Coefficient  Atom+Function         Bfn.  Coefficient  Atom+Function  
  ----- ------------  ---------------      ----- ------------  ---------------
   115      1.500625   4 I  pz              126     -1.500625   5 I  pz        
   112     -1.064094   4 I  pz              123      1.064094   5 I  pz        
   118     -0.490182   4 I  pz              129      0.490182   5 I  pz        
    37      0.364546   1 U  d -1             87     -0.107106   2 O  py        
   101      0.107106   3 O  py               32      0.087583   1 U  d -1      

 Vector   87  Occ=0.000000D+00  E= 8.583860D-01  Symmetry=a1
              MO Center=  9.6D-15, -1.1D-13, -3.3D-13, r^2= 5.7D+00
   Bfn.  Coefficient  Atom+Function         Bfn.  Coefficient  Atom+Function  
  ----- ------------  ---------------      ----- ------------  ---------------
     4      1.919957   1 U  s                33      1.552933   1 U  d  0      
    85     -1.290510   2 O  s                99     -1.290510   3 O  s         
    88      0.877243   2 O  pz              102     -0.877243   3 O  pz        
     2      0.840907   1 U  s                38     -0.733096   1 U  d  0      
     3     -0.555211   1 U  s                75      0.462470   1 U  g  0      

 Vector   88  Occ=0.000000D+00  E= 8.610133D-01  Symmetry=b2
              MO Center= -7.5D-14,  7.3D-14, -1.1D-14, r^2= 5.3D+00
   Bfn.  Coefficient  Atom+Function         Bfn.  Coefficient  Atom+Function  
  ----- ------------  ---------------      ----- ------------  ---------------
    48      1.102021   1 U  f -3             55     -1.093639   1 U  f -3      
    50     -0.635124   1 U  f -1            114      0.530149   4 I  py        
   125      0.530149   5 I  py               41     -0.446778   1 U  f -3      
   159     -0.403189   8 H  s               161      0.403189   9 H  s         
   163     -0.403189  10 H  s               165      0.403189  11 H  s         

 Vector   89  Occ=0.000000D+00  E= 8.737586D-01  Symmetry=a1
              MO Center= -5.6D-16, -6.0D-16, -1.8D-14, r^2= 3.4D+00
   Bfn.  Coefficient  Atom+Function         Bfn.  Coefficient  Atom+Function  
  ----- ------------  ---------------      ----- ------------  ---------------
    49      1.442678   1 U  f -2             56     -0.826513   1 U  f -2      
    42     -0.591982   1 U  f -2             33     -0.081142   1 U  d  0      
    89      0.058112   2 O  d -2            103     -0.058112   3 O  d -2      
    35      0.053110   1 U  d  2             85      0.049425   2 O  s         
    99      0.049425   3 O  s                40     -0.041787   1 U  d  2      

 Vector   90  Occ=0.000000D+00  E= 8.813799D-01  Symmetry=b1
              MO Center= -1.0D-14,  3.4D-15, -8.4D-14, r^2= 4.0D+00
   Bfn.  Coefficient  Atom+Function         Bfn.  Coefficient  Atom+Function  
  ----- ------------  ---------------      ----- ------------  ---------------
    53      1.375347   1 U  f  2             60     -0.941003   1 U  f  2      
    51      0.778224   1 U  f  0             58     -0.748836   1 U  f  0      
    14      0.631236   1 U  pz               88      0.610294   2 O  pz        
   102      0.610294   3 O  pz               46     -0.540805   1 U  f  2      
    85     -0.488252   2 O  s                99      0.488252   3 O  s         

 Vector   91  Occ=0.000000D+00  E= 9.105154D-01  Symmetry=b2
              MO Center=  2.0D-13, -2.2D-15,  9.8D-15, r^2= 6.6D+00
   Bfn.  Coefficient  Atom+Function         Bfn.  Coefficient  Atom+Function  
  ----- ------------  ---------------      ----- ------------  ---------------
   138      0.786906   6 O  pz              152     -0.786906   7 O  pz        
   134     -0.611074   6 O  pz              148      0.611074   7 O  pz        
    86     -0.258955   2 O  px              100      0.258955   3 O  px        
    50     -0.250828   1 U  f -1             82      0.227853   2 O  px        
    96     -0.227853   3 O  px               39      0.196482   1 U  d  1      

 Vector   92  Occ=0.000000D+00  E= 9.258489D-01  Symmetry=b3
              MO Center=  2.1D-14,  7.7D-15,  5.8D-14, r^2= 3.8D+00
   Bfn.  Coefficient  Atom+Function         Bfn.  Coefficient  Atom+Function  
  ----- ------------  ---------------      ----- ------------  ---------------
    52      1.160791   1 U  f  1             54      1.059356   1 U  f  3      
    61     -1.054669   1 U  f  3             86      0.490785   2 O  px        
   100      0.490785   3 O  px               45     -0.425715   1 U  f  1      
    47     -0.398331   1 U  f  3            113      0.386870   4 I  px        
   124      0.386870   5 I  px                9     -0.200993   1 U  px        

 Vector   93  Occ=0.000000D+00  E= 9.339281D-01  Symmetry=a1
              MO Center=  6.6D-16,  2.5D-12, -1.5D-13, r^2= 1.1D+01
   Bfn.  Coefficient  Atom+Function         Bfn.  Coefficient  Atom+Function  
  ----- ------------  ---------------      ----- ------------  ---------------
     3      1.071732   1 U  s                35     -1.032215   1 U  d  2      
   114      0.926220   4 I  py              125     -0.926220   5 I  py        
    28      0.918535   1 U  d  0             88      0.841413   2 O  pz        
   102     -0.841413   3 O  pz              111     -0.795472   4 I  py        
   122      0.795472   5 I  py                2     -0.721017   1 U  s         

 Vector   94  Occ=0.000000D+00  E= 9.341540D-01  Symmetry=b2
              MO Center=  4.4D-14, -2.6D-12,  9.7D-14, r^2= 3.8D+00
   Bfn.  Coefficient  Atom+Function         Bfn.  Coefficient  Atom+Function  
  ----- ------------  ---------------      ----- ------------  ---------------
    50      1.373794   1 U  f -1             55     -1.128773   1 U  f -3      
    48      0.842140   1 U  f -3             16      0.642279   1 U  py        
    87     -0.601867   2 O  py              101     -0.601867   3 O  py        
   109      0.555383   4 I  s               120     -0.555383   5 I  s         
    43     -0.492968   1 U  f -1             57     -0.407406   1 U  f -1      

 Vector   95  Occ=0.000000D+00  E= 9.645343D-01  Symmetry=b1
              MO Center= -1.5D-14, -2.0D-14,  5.2D-16, r^2= 4.6D+00
   Bfn.  Coefficient  Atom+Function         Bfn.  Coefficient  Atom+Function  
  ----- ------------  ---------------      ----- ------------  ---------------
    31      0.717783   1 U  d -2            137     -0.682889   6 O  py        
   151      0.682889   7 O  py              158     -0.428026   8 H  s         
   160      0.428026   9 H  s               162      0.428026  10 H  s         
   164     -0.428026  11 H  s                71     -0.409863   1 U  g -4      
    26     -0.311830   1 U  d -2            139      0.235241   6 O  d -2      

 Vector   96  Occ=0.000000D+00  E= 1.009158D+00  Symmetry=b2
              MO Center= -2.1D-14,  4.1D-14, -2.0D-14, r^2= 9.4D+00
   Bfn.  Coefficient  Atom+Function         Bfn.  Coefficient  Atom+Function  
  ----- ------------  ---------------      ----- ------------  ---------------
    13     -1.771511   1 U  py               10      1.610900   1 U  py        
    16      1.472416   1 U  py              114      0.978835   4 I  py        
   125      0.978835   5 I  py               55      0.973340   1 U  f -3      
   111     -0.767647   4 I  py              122     -0.767647   5 I  py        
    19     -0.558340   1 U  py              159      0.481574   8 H  s         

 Vector   97  Occ=0.000000D+00  E= 1.053731D+00  Symmetry=b1
              MO Center=  6.1D-14,  4.5D-15, -3.2D-14, r^2= 6.8D+00
   Bfn.  Coefficient  Atom+Function         Bfn.  Coefficient  Atom+Function  
  ----- ------------  ---------------      ----- ------------  ---------------
   138      1.066299   6 O  pz              152      1.066299   7 O  pz        
    17     -0.761640   1 U  pz               60     -0.763629   1 U  f  2      
    14      0.676333   1 U  pz               58      0.679063   1 U  f  0      
   134     -0.632191   6 O  pz              148     -0.632191   7 O  pz        
    11     -0.497095   1 U  pz               51     -0.380477   1 U  f  0      

 Vector   98  Occ=0.000000D+00  E= 1.055569D+00  Symmetry=b3
              MO Center=  2.4D-15, -1.6D-13,  2.2D-13, r^2= 3.3D+00
   Bfn.  Coefficient  Atom+Function         Bfn.  Coefficient  Atom+Function  
  ----- ------------  ---------------      ----- ------------  ---------------
    54      1.198324   1 U  f  3             52     -1.028274   1 U  f  1      
    15     -1.014224   1 U  px               86     -0.558870   2 O  px        
   100     -0.558870   3 O  px               59     -0.507151   1 U  f  1      
   136     -0.488471   6 O  px              150     -0.488471   7 O  px        
    47     -0.447428   1 U  f  3            159      0.399756   8 H  s         

 Vector   99  Occ=0.000000D+00  E= 1.066032D+00  Symmetry=b2
              MO Center=  4.8D-14, -1.7D-13,  5.9D-14, r^2= 8.1D+00
   Bfn.  Coefficient  Atom+Function         Bfn.  Coefficient  Atom+Function  
  ----- ------------  ---------------      ----- ------------  ---------------
   137      0.954885   6 O  py              151      0.954885   7 O  py        
   159      0.936957   8 H  s               161     -0.936957   9 H  s         
   163      0.936957  10 H  s               165     -0.936957  11 H  s         
   133     -0.678272   6 O  py              147     -0.678272   7 O  py        
    13      0.579740   1 U  py               19      0.566976   1 U  py        

 Vector  100  Occ=0.000000D+00  E= 1.079272D+00  Symmetry=b3
              MO Center=  3.0D-13, -7.0D-14, -6.9D-14, r^2= 4.8D+00
   Bfn.  Coefficient  Atom+Function         Bfn.  Coefficient  Atom+Function  
  ----- ------------  ---------------      ----- ------------  ---------------
    15     -2.248103   1 U  px               12      2.187932   1 U  px        
     9     -1.710447   1 U  px               87      0.779512   2 O  py        
   101     -0.779512   3 O  py              136     -0.571143   6 O  px        
   150     -0.571143   7 O  px               32     -0.471163   1 U  d -1      
    59     -0.443978   1 U  f  1            159      0.433425   8 H  s         

 Vector  101  Occ=0.000000D+00  E= 1.089775D+00  Symmetry=b3
              MO Center=  4.1D-13, -1.6D-13,  2.1D-13, r^2= 4.9D+00
   Bfn.  Coefficient  Atom+Function         Bfn.  Coefficient  Atom+Function  
  ----- ------------  ---------------      ----- ------------  ---------------
    15     -1.977219   1 U  px               12      1.909787   1 U  px        
     9     -1.465747   1 U  px               87     -0.919323   2 O  py        
   101      0.919323   3 O  py               32      0.571377   1 U  d -1      
    83      0.465707   2 O  py               97     -0.465707   3 O  py        
   136     -0.464514   6 O  px              150     -0.464514   7 O  px        

 Vector  102  Occ=0.000000D+00  E= 1.101227D+00  Symmetry=b1
              MO Center=  8.6D-15,  4.5D-13,  1.3D-15, r^2= 8.0D+00
   Bfn.  Coefficient  Atom+Function         Bfn.  Coefficient  Atom+Function  
  ----- ------------  ---------------      ----- ------------  ---------------
   137      1.249765   6 O  py              151     -1.249765   7 O  py        
   159      1.250062   8 H  s               161     -1.250062   9 H  s         
   163     -1.250062  10 H  s               165      1.250062  11 H  s         
    36      0.873062   1 U  d -2            133     -0.714731   6 O  py        
   147      0.714731   7 O  py               31     -0.581266   1 U  d -2      

 Vector  103  Occ=0.000000D+00  E= 1.102123D+00  Symmetry=a1
              MO Center= -4.5D-13,  2.8D-14,  3.0D-14, r^2= 5.3D+00
   Bfn.  Coefficient  Atom+Function         Bfn.  Coefficient  Atom+Function  
  ----- ------------  ---------------      ----- ------------  ---------------
     3      4.566694   1 U  s                 2     -4.145655   1 U  s         
     4     -1.758193   1 U  s                 1     -1.094206   1 U  s         
    33      0.878728   1 U  d  0             88      0.768728   2 O  pz        
   102     -0.768728   3 O  pz               38     -0.499867   1 U  d  0      
   136     -0.480640   6 O  px              150      0.480640   7 O  px        

 Vector  104  Occ=0.000000D+00  E= 1.126558D+00  Symmetry=b2
              MO Center= -1.8D-13, -1.4D-15,  2.9D-13, r^2= 5.5D+00
   Bfn.  Coefficient  Atom+Function         Bfn.  Coefficient  Atom+Function  
  ----- ------------  ---------------      ----- ------------  ---------------
    34      1.312640   1 U  d  1             86      1.234880   2 O  px        
   100     -1.234880   3 O  px               82     -0.551379   2 O  px        
    96      0.551379   3 O  px              138      0.478395   6 O  pz        
   152     -0.478395   7 O  pz               76      0.278043   1 U  g  1      
   134     -0.219966   6 O  pz              148      0.219966   7 O  pz        

 Vector  105  Occ=0.000000D+00  E= 1.179500D+00  Symmetry=b3
              MO Center=  5.6D-12,  1.9D-14,  4.5D-14, r^2= 9.0D+00
   Bfn.  Coefficient  Atom+Function         Bfn.  Coefficient  Atom+Function  
  ----- ------------  ---------------      ----- ------------  ---------------
    15      1.401646   1 U  px              136      1.243400   6 O  px        
   150      1.243400   7 O  px              159     -1.170730   8 H  s         
   161     -1.170730   9 H  s               163      1.170730  10 H  s         
   165      1.170730  11 H  s               135      0.851366   6 O  s         
   149     -0.851366   7 O  s                18      0.613600   1 U  px        

 Vector  106  Occ=0.000000D+00  E= 1.186221D+00  Symmetry=b1
              MO Center= -1.0D-13, -2.9D-16,  4.4D-13, r^2= 5.4D+00
   Bfn.  Coefficient  Atom+Function         Bfn.  Coefficient  Atom+Function  
  ----- ------------  ---------------      ----- ------------  ---------------
    14      2.967445   1 U  pz               11     -1.505544   1 U  pz        
    17     -1.411227   1 U  pz               88      1.368124   2 O  pz        
   102      1.368124   3 O  pz               58     -0.963890   1 U  f  0      
    84     -0.464480   2 O  pz               98     -0.464480   3 O  pz        
   138     -0.388409   6 O  pz              152     -0.388409   7 O  pz        

 Vector  107  Occ=0.000000D+00  E= 1.195340D+00  Symmetry=a1
              MO Center= -6.1D-12,  2.7D-13, -5.0D-13, r^2= 8.7D+00
   Bfn.  Coefficient  Atom+Function         Bfn.  Coefficient  Atom+Function  
  ----- ------------  ---------------      ----- ------------  ---------------
   136      1.248322   6 O  px              150     -1.248322   7 O  px        
   159     -1.215255   8 H  s               161     -1.215255   9 H  s         
   163     -1.215255  10 H  s               165     -1.215255  11 H  s         
     2     -1.133401   1 U  s                 4      0.958586   1 U  s         
     3      0.803258   1 U  s                38     -0.770038   1 U  d  0      

 Vector  108  Occ=0.000000D+00  E= 1.239541D+00  Symmetry=b1
              MO Center= -2.2D-15,  2.3D-14, -2.1D-14, r^2= 2.4D+00
   Bfn.  Coefficient  Atom+Function         Bfn.  Coefficient  Atom+Function  
  ----- ------------  ---------------      ----- ------------  ---------------
    73      0.781306   1 U  g -2             71      0.319717   1 U  g -4      
    89      0.231762   2 O  d -2            103      0.231762   3 O  d -2      
    36     -0.210752   1 U  d -2            113     -0.174911   4 I  px        
   124      0.174911   5 I  px              159     -0.168763   8 H  s         
   161      0.168763   9 H  s               163      0.168763  10 H  s         

 Vector  109  Occ=0.000000D+00  E= 1.270261D+00  Symmetry=b2
              MO Center= -2.6D-14,  2.1D-15, -6.6D-15, r^2= 3.4D+00
   Bfn.  Coefficient  Atom+Function         Bfn.  Coefficient  Atom+Function  
  ----- ------------  ---------------      ----- ------------  ---------------
    78      0.694751   1 U  g  3             87     -0.368559   2 O  py        
   101     -0.368559   3 O  py               57      0.305741   1 U  f -1      
   142     -0.304175   6 O  d  1            156     -0.304175   7 O  d  1      
    76     -0.271768   1 U  g  1            137      0.232416   6 O  py        
   151      0.232416   7 O  py               16      0.207518   1 U  py        

 Vector  110  Occ=0.000000D+00  E= 1.279837D+00  Symmetry=b2
              MO Center=  5.0D-15, -9.6D-15, -3.1D-13, r^2= 5.0D+00
   Bfn.  Coefficient  Atom+Function         Bfn.  Coefficient  Atom+Function  
  ----- ------------  ---------------      ----- ------------  ---------------
    16      1.551011   1 U  py               87     -1.267085   2 O  py        
   101     -1.267085   3 O  py               13     -1.068416   1 U  py        
    57      0.907680   1 U  f -1             10      0.828162   1 U  py        
    83      0.635447   2 O  py               97      0.635447   3 O  py        
    19     -0.482648   1 U  py               78     -0.198895   1 U  g  3      

 Vector  111  Occ=0.000000D+00  E= 1.310553D+00  Symmetry=b3
              MO Center= -6.5D-14, -1.7D-15, -2.3D-14, r^2= 2.5D+00
   Bfn.  Coefficient  Atom+Function         Bfn.  Coefficient  Atom+Function  
  ----- ------------  ---------------      ----- ------------  ---------------
    72      0.892245   1 U  g -3             59      0.313087   1 U  f  1      
    86      0.272595   2 O  px              100      0.272595   3 O  px        
   140      0.225899   6 O  d -1            154      0.225899   7 O  d -1      
    87      0.173714   2 O  py              101     -0.173714   3 O  py        
    32     -0.166061   1 U  d -1             12     -0.129991   1 U  px        

 Vector  112  Occ=0.000000D+00  E= 1.330909D+00  Symmetry=a1
              MO Center= -6.4D-14, -9.8D-14, -2.9D-14, r^2= 3.7D+00
   Bfn.  Coefficient  Atom+Function         Bfn.  Coefficient  Atom+Function  
  ----- ------------  ---------------      ----- ------------  ---------------
    77      0.708516   1 U  g  2             35     -0.623502   1 U  d  2      
     3     -0.614691   1 U  s               135     -0.581484   6 O  s         
   149     -0.581484   7 O  s                 2      0.557150   1 U  s         
   131      0.435812   6 O  s               145      0.435812   7 O  s         
   111     -0.392628   4 I  py              122      0.392628   5 I  py        

 Vector  113  Occ=0.000000D+00  E= 1.362671D+00  Symmetry=b3
              MO Center=  3.0D-14, -1.5D-14, -4.8D-13, r^2= 5.6D+00
   Bfn.  Coefficient  Atom+Function         Bfn.  Coefficient  Atom+Function  
  ----- ------------  ---------------      ----- ------------  ---------------
    59      2.129048   1 U  f  1             86      1.562186   2 O  px        
   100      1.562186   3 O  px               15      1.210903   1 U  px        
    12     -1.120663   1 U  px              159     -0.785235   8 H  s         
   161     -0.785235   9 H  s               163      0.785235  10 H  s         
   165      0.785235  11 H  s               136      0.749265   6 O  px        

 Vector  114  Occ=0.000000D+00  E= 1.390919D+00  Symmetry=b2
              MO Center=  3.3D-14,  1.8D-13, -1.3D-14, r^2= 4.9D+00
   Bfn.  Coefficient  Atom+Function         Bfn.  Coefficient  Atom+Function  
  ----- ------------  ---------------      ----- ------------  ---------------
    16     -1.882197   1 U  py               13      1.777181   1 U  py        
   137      1.193271   6 O  py              151      1.193271   7 O  py        
    10     -1.132949   1 U  py               48     -1.067495   1 U  f -3      
    55      0.739470   1 U  f -3            109     -0.659427   4 I  s         
   120      0.659427   5 I  s                57      0.590088   1 U  f -1      

 Vector  115  Occ=0.000000D+00  E= 1.412516D+00  Symmetry=b2
              MO Center=  8.0D-16, -5.2D-16, -4.3D-14, r^2= 2.2D+00
   Bfn.  Coefficient  Atom+Function         Bfn.  Coefficient  Atom+Function  
  ----- ------------  ---------------      ----- ------------  ---------------
    76      0.715644   1 U  g  1             34      0.523552   1 U  d  1      
    78      0.466419   1 U  g  3             29     -0.272378   1 U  d  1      
    82      0.206139   2 O  px               96     -0.206139   3 O  px        
    92     -0.193151   2 O  d  1            106     -0.193151   3 O  d  1      
    86      0.133778   2 O  px              100     -0.133778   3 O  px        

 Vector  116  Occ=0.000000D+00  E= 1.414628D+00  Symmetry=a1
              MO Center=  8.5D-14, -9.4D-14,  3.6D-14, r^2= 3.1D+00
   Bfn.  Coefficient  Atom+Function         Bfn.  Coefficient  Atom+Function  
  ----- ------------  ---------------      ----- ------------  ---------------
    85      0.938216   2 O  s                99      0.938216   3 O  s         
    79     -0.739983   1 U  g  4              4     -0.699327   1 U  s         
   135     -0.676880   6 O  s               149     -0.676880   7 O  s         
   131      0.503838   6 O  s               145      0.503838   7 O  s         
    33     -0.457332   1 U  d  0             81     -0.344511   2 O  s         

 Vector  117  Occ=0.000000D+00  E= 1.433146D+00  Symmetry=b3
              MO Center= -8.6D-15, -7.7D-16, -3.6D-14, r^2= 2.2D+00
   Bfn.  Coefficient  Atom+Function         Bfn.  Coefficient  Atom+Function  
  ----- ------------  ---------------      ----- ------------  ---------------
    74      0.801735   1 U  g -1             32      0.398085   1 U  d -1      
    83     -0.269997   2 O  py               97      0.269997   3 O  py        
    27     -0.260297   1 U  d -1             90     -0.217903   2 O  d -1      
   104     -0.217903   3 O  d -1             37     -0.111158   1 U  d -1      
    65      0.092468   1 U  g -1            140     -0.061149   6 O  d -1      

 Vector  118  Occ=0.000000D+00  E= 1.568190D+00  Symmetry=a1
              MO Center= -3.2D-12, -1.2D-16,  4.6D-15, r^2= 5.9D+00
   Bfn.  Coefficient  Atom+Function         Bfn.  Coefficient  Atom+Function  
  ----- ------------  ---------------      ----- ------------  ---------------
   140      0.689134   6 O  d -1            154     -0.689134   7 O  d -1      
     3     -0.242596   1 U  s                 2      0.236153   1 U  s         
    85      0.183630   2 O  s                99      0.183630   3 O  s         
    33     -0.182415   1 U  d  0             56     -0.161849   1 U  f -2      
    89     -0.118681   2 O  d -2            103      0.118681   3 O  d -2      

 Vector  119  Occ=0.000000D+00  E= 1.591989D+00  Symmetry=a1
              MO Center=  5.9D-13, -2.7D-14,  2.9D-15, r^2= 5.6D+00
   Bfn.  Coefficient  Atom+Function         Bfn.  Coefficient  Atom+Function  
  ----- ------------  ---------------      ----- ------------  ---------------
   135      1.838697   6 O  s               149      1.838697   7 O  s         
     3      1.587427   1 U  s                 4     -1.270914   1 U  s         
    35     -1.249144   1 U  d  2              2     -1.164014   1 U  s         
    33      1.076367   1 U  d  0            131     -0.761733   6 O  s         
   145     -0.761733   7 O  s                 5      0.510074   1 U  s         

 Vector  120  Occ=0.000000D+00  E= 1.605629D+00  Symmetry=b3
              MO Center=  3.2D-12,  7.4D-16,  1.6D-14, r^2= 5.5D+00
   Bfn.  Coefficient  Atom+Function         Bfn.  Coefficient  Atom+Function  
  ----- ------------  ---------------      ----- ------------  ---------------
   140      0.658087   6 O  d -1            154      0.658087   7 O  d -1      
    72     -0.338717   1 U  g -3             59     -0.209141   1 U  f  1      
    32     -0.204958   1 U  d -1             87      0.156007   2 O  py        
   101     -0.156007   3 O  py               86     -0.128737   2 O  px        
   100     -0.128737   3 O  px               15     -0.107328   1 U  px        

 Vector  121  Occ=0.000000D+00  E= 1.662988D+00  Symmetry=b2
              MO Center= -6.3D-15,  3.3D-14, -3.0D-14, r^2= 6.3D+00
   Bfn.  Coefficient  Atom+Function         Bfn.  Coefficient  Atom+Function  
  ----- ------------  ---------------      ----- ------------  ---------------
    13      2.790286   1 U  py               10     -1.953345   1 U  py        
    55      1.872776   1 U  f -3             16     -1.653004   1 U  py        
    57      1.559852   1 U  f -1            109     -1.459911   4 I  s         
   120      1.459911   5 I  s               137     -0.914703   6 O  py        
   151     -0.914703   7 O  py              111     -0.842166   4 I  py        

 Vector  122  Occ=0.000000D+00  E= 1.689031D+00  Symmetry=b1
              MO Center= -3.6D-14,  2.1D-14,  1.1D-12, r^2= 4.4D+00
   Bfn.  Coefficient  Atom+Function         Bfn.  Coefficient  Atom+Function  
  ----- ------------  ---------------      ----- ------------  ---------------
    14      1.291409   1 U  pz               17     -1.143307   1 U  pz        
    11     -0.897741   1 U  pz               85      0.840061   2 O  s         
    99     -0.840061   3 O  s               137      0.687793   6 O  py        
   151     -0.687793   7 O  py               58     -0.642163   1 U  f  0      
    31     -0.546928   1 U  d -2             71     -0.475578   1 U  g -4      

 Vector  123  Occ=0.000000D+00  E= 1.702066D+00  Symmetry=a1
              MO Center= -5.4D-14,  1.9D-14, -1.2D-12, r^2= 4.1D+00
   Bfn.  Coefficient  Atom+Function         Bfn.  Coefficient  Atom+Function  
  ----- ------------  ---------------      ----- ------------  ---------------
    33      3.025661   1 U  d  0             85     -2.885960   2 O  s         
    99     -2.885960   3 O  s                 2     -2.172612   1 U  s         
     3      1.862599   1 U  s                 4      1.856700   1 U  s         
    81      0.689014   2 O  s                95      0.689014   3 O  s         
    75      0.659922   1 U  g  0              5     -0.604612   1 U  s         

 Vector  124  Occ=0.000000D+00  E= 1.726662D+00  Symmetry=b1
              MO Center= -2.3D-14,  5.5D-14,  2.9D-15, r^2= 3.8D+00
   Bfn.  Coefficient  Atom+Function         Bfn.  Coefficient  Atom+Function  
  ----- ------------  ---------------      ----- ------------  ---------------
   137      1.031350   6 O  py              151     -1.031350   7 O  py        
    31     -0.876887   1 U  d -2             14     -0.861889   1 U  pz        
    17      0.732223   1 U  pz               71     -0.713969   1 U  g -4      
    11      0.592485   1 U  pz               85     -0.509574   2 O  s         
    99      0.509574   3 O  s                58      0.420901   1 U  f  0      

 Vector  125  Occ=0.000000D+00  E= 1.796345D+00  Symmetry=b3
              MO Center= -4.4D-13, -6.9D-14,  8.0D-15, r^2= 6.2D+00
   Bfn.  Coefficient  Atom+Function         Bfn.  Coefficient  Atom+Function  
  ----- ------------  ---------------      ----- ------------  ---------------
    15      3.651380   1 U  px              135     -2.637381   6 O  s         
   149      2.637381   7 O  s                12     -1.586218   1 U  px        
    61     -1.417786   1 U  f  3            131      1.058802   6 O  s         
   145     -1.058802   7 O  s                59      0.918972   1 U  f  1      
   136      0.808052   6 O  px              150      0.808052   7 O  px        

 Vector  126  Occ=0.000000D+00  E= 1.883119D+00  Symmetry=a1
              MO Center=  1.5D-14, -6.0D-17, -4.8D-13, r^2= 3.8D+00
   Bfn.  Coefficient  Atom+Function         Bfn.  Coefficient  Atom+Function  
  ----- ------------  ---------------      ----- ------------  ---------------
    89      0.718893   2 O  d -2            103     -0.718893   3 O  d -2      
    49     -0.355792   1 U  f -2            140      0.130273   6 O  d -1      
   154     -0.130273   7 O  d -1             42      0.098765   1 U  f -2      
   135      0.066800   6 O  s               149      0.066800   7 O  s         
    33      0.036761   1 U  d  0             56     -0.033775   1 U  f -2      

 Vector  127  Occ=0.000000D+00  E= 1.888168D+00  Symmetry=b1
              MO Center= -3.3D-14, -1.4D-15,  4.9D-14, r^2= 4.9D+00
   Bfn.  Coefficient  Atom+Function         Bfn.  Coefficient  Atom+Function  
  ----- ------------  ---------------      ----- ------------  ---------------
    17      2.699089   1 U  pz               85     -2.543845   2 O  s         
    99      2.543845   3 O  s                58      1.299724   1 U  f  0      
    81      1.129023   2 O  s                95     -1.129023   3 O  s         
    20     -0.613558   1 U  pz               14     -0.534426   1 U  pz        
    93      0.415152   2 O  d  2            107     -0.415152   3 O  d  2      

 Vector  128  Occ=0.000000D+00  E= 1.966992D+00  Symmetry=b1
              MO Center= -1.5D-13, -6.4D-16,  1.8D-13, r^2= 3.4D+00
   Bfn.  Coefficient  Atom+Function         Bfn.  Coefficient  Atom+Function  
  ----- ------------  ---------------      ----- ------------  ---------------
    14      3.718587   1 U  pz               85     -2.833496   2 O  s         
    99      2.833496   3 O  s                11     -2.676173   1 U  pz        
    17      2.051845   1 U  pz               51      1.505415   1 U  f  0      
    88      0.747799   2 O  pz              102      0.747799   3 O  pz        
    20     -0.497275   1 U  pz                8     -0.426655   1 U  pz        

 Vector  129  Occ=0.000000D+00  E= 1.993856D+00  Symmetry=b2
              MO Center=  1.8D-13, -1.9D-15,  1.5D-14, r^2= 4.6D+00
   Bfn.  Coefficient  Atom+Function         Bfn.  Coefficient  Atom+Function  
  ----- ------------  ---------------      ----- ------------  ---------------
    34      1.257143   1 U  d  1            142      0.635360   6 O  d  1      
   156      0.635360   7 O  d  1             29     -0.557655   1 U  d  1      
    86      0.456706   2 O  px              100     -0.456706   3 O  px        
    78      0.412996   1 U  g  3            138      0.389622   6 O  pz        
   152     -0.389622   7 O  pz               24      0.296469   1 U  d  1      

 Vector  130  Occ=0.000000D+00  E= 1.996993D+00  Symmetry=a1
              MO Center=  2.1D-14,  1.4D-16, -4.6D-13, r^2= 3.6D+00
   Bfn.  Coefficient  Atom+Function         Bfn.  Coefficient  Atom+Function  
  ----- ------------  ---------------      ----- ------------  ---------------
     4      2.159552   1 U  s                 2     -1.453692   1 U  s         
    85     -1.442299   2 O  s                99     -1.442299   3 O  s         
   135     -1.251502   6 O  s               149     -1.251502   7 O  s         
     3      1.161617   1 U  s                35      1.089093   1 U  d  2      
    28      1.017252   1 U  d  0             81      0.808238   2 O  s         

 Vector  131  Occ=0.000000D+00  E= 2.031549D+00  Symmetry=b1
              MO Center= -9.2D-16,  6.7D-16,  5.2D-13, r^2= 3.4D+00
   Bfn.  Coefficient  Atom+Function         Bfn.  Coefficient  Atom+Function  
  ----- ------------  ---------------      ----- ------------  ---------------
    89      0.684622   2 O  d -2            103      0.684622   3 O  d -2      
    73     -0.539993   1 U  g -2             31     -0.260535   1 U  d -2      
    26      0.201701   1 U  d -2             21     -0.127116   1 U  d -2      
    64     -0.116033   1 U  g -2            137     -0.108717   6 O  py        
   151      0.108717   7 O  py              158     -0.083543   8 H  s         

 Vector  132  Occ=0.000000D+00  E= 2.075596D+00  Symmetry=a1
              MO Center= -6.3D-14,  4.7D-15,  1.1D-13, r^2= 3.7D+00
   Bfn.  Coefficient  Atom+Function         Bfn.  Coefficient  Atom+Function  
  ----- ------------  ---------------      ----- ------------  ---------------
    35      0.969028   1 U  d  2              4      0.939117   1 U  s         
   135     -0.798601   6 O  s               149     -0.798601   7 O  s         
    93     -0.684591   2 O  d  2            107     -0.684591   3 O  d  2      
    77      0.394936   1 U  g  2            131      0.349647   6 O  s         
   145      0.349647   7 O  s               136      0.345173   6 O  px        

 Vector  133  Occ=0.000000D+00  E= 2.162583D+00  Symmetry=b1
              MO Center=  1.3D-13, -5.0D-16,  1.7D-13, r^2= 4.0D+00
   Bfn.  Coefficient  Atom+Function         Bfn.  Coefficient  Atom+Function  
  ----- ------------  ---------------      ----- ------------  ---------------
    14      1.917789   1 U  pz               11     -1.390559   1 U  pz        
    51      1.249903   1 U  f  0            142      0.512577   6 O  d  1      
   156     -0.512577   7 O  d  1             85     -0.486575   2 O  s         
    99      0.486575   3 O  s                81     -0.414202   2 O  s         
    95      0.414202   3 O  s                53     -0.408630   1 U  f  2      

 Vector  134  Occ=0.000000D+00  E= 2.252846D+00  Symmetry=a1
              MO Center=  3.6D-13,  2.9D-14, -4.2D-15, r^2= 3.2D+00
   Bfn.  Coefficient  Atom+Function         Bfn.  Coefficient  Atom+Function  
  ----- ------------  ---------------      ----- ------------  ---------------
    35      2.175055   1 U  d  2            135     -1.425034   6 O  s         
   149     -1.425034   7 O  s                30     -1.248669   1 U  d  2      
    85      0.983320   2 O  s                99      0.983320   3 O  s         
    33     -0.961291   1 U  d  0              2     -0.868022   1 U  s         
    25      0.800214   1 U  d  2            136      0.744587   6 O  px        

 Vector  135  Occ=0.000000D+00  E= 2.344315D+00  Symmetry=b2
              MO Center= -3.7D-15, -1.1D-14,  8.9D-14, r^2= 3.8D+00
   Bfn.  Coefficient  Atom+Function         Bfn.  Coefficient  Atom+Function  
  ----- ------------  ---------------      ----- ------------  ---------------
    13      1.135010   1 U  py               50      1.138905   1 U  f -1      
    90      0.861729   2 O  d -1            104     -0.861729   3 O  d -1      
    10     -0.798886   1 U  py               87     -0.792923   2 O  py        
   101     -0.792923   3 O  py              137      0.208724   6 O  py        
   151      0.208724   7 O  py              111     -0.131470   4 I  py        

 Vector  136  Occ=0.000000D+00  E= 2.345316D+00  Symmetry=b3
              MO Center= -3.3D-14, -4.3D-15,  7.1D-15, r^2= 4.0D+00
   Bfn.  Coefficient  Atom+Function         Bfn.  Coefficient  Atom+Function  
  ----- ------------  ---------------      ----- ------------  ---------------
   135     -1.017959   6 O  s               149      1.017959   7 O  s         
    12      1.001816   1 U  px               15      0.995696   1 U  px        
     9     -0.880045   1 U  px               52     -0.857695   1 U  f  1      
    92     -0.777073   2 O  d  1            106      0.777073   3 O  d  1      
    86     -0.723776   2 O  px              100     -0.723776   3 O  px        

 Vector  137  Occ=0.000000D+00  E= 2.439821D+00  Symmetry=b3
              MO Center=  2.7D-16,  3.2D-16,  1.0D-14, r^2= 3.2D+00
   Bfn.  Coefficient  Atom+Function         Bfn.  Coefficient  Atom+Function  
  ----- ------------  ---------------      ----- ------------  ---------------
    32     -1.701734   1 U  d -1             27      1.548662   1 U  d -1      
    22     -1.318103   1 U  d -1             74     -0.751574   1 U  g -1      
    90     -0.638699   2 O  d -1            104     -0.638699   3 O  d -1      
    87      0.576866   2 O  py              101     -0.576866   3 O  py        
    37      0.573304   1 U  d -1            118      0.163900   4 I  pz        

 Vector  138  Occ=0.000000D+00  E= 2.443360D+00  Symmetry=b2
              MO Center=  1.2D-14, -1.9D-16,  9.3D-14, r^2= 3.0D+00
   Bfn.  Coefficient  Atom+Function         Bfn.  Coefficient  Atom+Function  
  ----- ------------  ---------------      ----- ------------  ---------------
    34     -1.557423   1 U  d  1             29      1.544172   1 U  d  1      
    24     -1.341065   1 U  d  1             76     -0.738130   1 U  g  1      
    92     -0.605255   2 O  d  1            106     -0.605255   3 O  d  1      
    86     -0.569147   2 O  px              100      0.569147   3 O  px        
    39      0.334744   1 U  d  1            142      0.127696   6 O  d  1      

 Vector  139  Occ=0.000000D+00  E= 2.550079D+00  Symmetry=b3
              MO Center= -1.1D-11, -2.5D-13, -2.3D-14, r^2= 5.3D+00
   Bfn.  Coefficient  Atom+Function         Bfn.  Coefficient  Atom+Function  
  ----- ------------  ---------------      ----- ------------  ---------------
    15      1.592319   1 U  px               12      1.426971   1 U  px        
     9     -1.397927   1 U  px              136      1.359798   6 O  px        
   150      1.359798   7 O  px               54     -1.025633   1 U  f  3      
   135     -0.991619   6 O  s               149      0.991619   7 O  s         
    52      0.893931   1 U  f  1            143     -0.832613   6 O  d  2      

 Vector  140  Occ=0.000000D+00  E= 2.555448D+00  Symmetry=a1
              MO Center=  1.0D-11, -7.0D-14, -5.3D-14, r^2= 6.4D+00
   Bfn.  Coefficient  Atom+Function         Bfn.  Coefficient  Atom+Function  
  ----- ------------  ---------------      ----- ------------  ---------------
   135      1.201473   6 O  s               149      1.201473   7 O  s         
   158     -0.876331   8 H  s               160     -0.876331   9 H  s         
   162     -0.876331  10 H  s               164     -0.876331  11 H  s         
   143     -0.714202   6 O  d  2            157     -0.714202   7 O  d  2      
   141     -0.619905   6 O  d  0            155     -0.619905   7 O  d  0      

 Vector  141  Occ=0.000000D+00  E= 2.571355D+00  Symmetry=b1
              MO Center= -7.3D-13,  2.7D-13,  4.8D-14, r^2= 6.6D+00
   Bfn.  Coefficient  Atom+Function         Bfn.  Coefficient  Atom+Function  
  ----- ------------  ---------------      ----- ------------  ---------------
   137      1.353812   6 O  py              151     -1.353812   7 O  py        
   158      0.991190   8 H  s               160     -0.991190   9 H  s         
   162     -0.991190  10 H  s               164      0.991190  11 H  s         
   139      0.840991   6 O  d -2            153      0.840991   7 O  d -2      
    26     -0.820943   1 U  d -2             21      0.625408   1 U  d -2      

 Vector  142  Occ=0.000000D+00  E= 2.632345D+00  Symmetry=b3
              MO Center=  1.4D-13, -1.5D-14, -1.8D-14, r^2= 5.6D+00
   Bfn.  Coefficient  Atom+Function         Bfn.  Coefficient  Atom+Function  
  ----- ------------  ---------------      ----- ------------  ---------------
   135      2.516003   6 O  s               149     -2.516003   7 O  s         
    15     -2.247303   1 U  px               52     -1.106429   1 U  f  1      
    59     -0.811271   1 U  f  1            158     -0.768605   8 H  s         
   160     -0.768605   9 H  s               162      0.768605  10 H  s         
   164      0.768605  11 H  s                61      0.750578   1 U  f  3      

 Vector  143  Occ=0.000000D+00  E= 2.651782D+00  Symmetry=b2
              MO Center=  6.9D-13,  6.4D-14,  4.3D-15, r^2= 7.1D+00
   Bfn.  Coefficient  Atom+Function         Bfn.  Coefficient  Atom+Function  
  ----- ------------  ---------------      ----- ------------  ---------------
   137      1.621776   6 O  py              151      1.621776   7 O  py        
   158      1.076109   8 H  s               160     -1.076109   9 H  s         
   162      1.076109  10 H  s               164     -1.076109  11 H  s         
   139      0.873677   6 O  d -2            153     -0.873677   7 O  d -2      
    55     -0.712742   1 U  f -3             13     -0.371081   1 U  py        

 Vector  144  Occ=0.000000D+00  E= 2.667946D+00  Symmetry=b1
              MO Center= -1.2D-15, -9.6D-16,  5.2D-12, r^2= 4.9D+00
   Bfn.  Coefficient  Atom+Function         Bfn.  Coefficient  Atom+Function  
  ----- ------------  ---------------      ----- ------------  ---------------
    14      6.481730   1 U  pz               85     -3.700212   2 O  s         
    99      3.700212   3 O  s                11     -2.875594   1 U  pz        
    88      2.291916   2 O  pz              102      2.291916   3 O  pz        
    51      1.956127   1 U  f  0             17      1.441994   1 U  pz        
    91     -1.013460   2 O  d  0            105      1.013460   3 O  d  0      

 Vector  145  Occ=0.000000D+00  E= 2.740078D+00  Symmetry=a1
              MO Center=  2.6D-14,  8.4D-15, -5.0D-12, r^2= 3.9D+00
   Bfn.  Coefficient  Atom+Function         Bfn.  Coefficient  Atom+Function  
  ----- ------------  ---------------      ----- ------------  ---------------
     3      5.032369   1 U  s                 2     -4.331192   1 U  s         
    85     -2.856955   2 O  s                99     -2.856955   3 O  s         
    88      1.598884   2 O  pz              102     -1.598884   3 O  pz        
     4      1.573130   1 U  s                28      1.533168   1 U  d  0      
    33      1.253673   1 U  d  0             91     -0.919652   2 O  d  0      

 Vector  146  Occ=0.000000D+00  E= 2.827123D+00  Symmetry=b1
              MO Center=  5.0D-14,  3.1D-15,  6.4D-16, r^2= 3.4D+00
   Bfn.  Coefficient  Atom+Function         Bfn.  Coefficient  Atom+Function  
  ----- ------------  ---------------      ----- ------------  ---------------
    26      3.334626   1 U  d -2             21     -2.283930   1 U  d -2      
    31     -2.245315   1 U  d -2             36      1.023351   1 U  d -2      
   137      0.513340   6 O  py              151     -0.513340   7 O  py        
   139      0.290590   6 O  d -2            153      0.290590   7 O  d -2      
   158      0.266093   8 H  s               160     -0.266093   9 H  s         

 Vector  147  Occ=0.000000D+00  E= 3.123431D+00  Symmetry=b2
              MO Center=  1.4D-15, -6.5D-17, -1.7D-14, r^2= 2.9D+00
   Bfn.  Coefficient  Atom+Function         Bfn.  Coefficient  Atom+Function  
  ----- ------------  ---------------      ----- ------------  ---------------
    29      2.931296   1 U  d  1             24     -1.852997   1 U  d  1      
    34     -1.143749   1 U  d  1             92      0.618386   2 O  d  1      
   106      0.618386   3 O  d  1             76      0.410186   1 U  g  1      
    39      0.403678   1 U  d  1             67      0.374748   1 U  g  1      
    86      0.367162   2 O  px              100     -0.367162   3 O  px        

 Vector  148  Occ=0.000000D+00  E= 3.159495D+00  Symmetry=b3
              MO Center=  2.1D-16,  2.8D-16, -6.2D-15, r^2= 2.9D+00
   Bfn.  Coefficient  Atom+Function         Bfn.  Coefficient  Atom+Function  
  ----- ------------  ---------------      ----- ------------  ---------------
    27      3.062774   1 U  d -1             22     -1.898199   1 U  d -1      
    32     -1.484661   1 U  d -1             37      0.721970   1 U  d -1      
    90      0.570427   2 O  d -1            104      0.570427   3 O  d -1      
    65      0.434807   1 U  g -1             74      0.339967   1 U  g -1      
    87     -0.308398   2 O  py              101      0.308398   3 O  py        

 Vector  149  Occ=0.000000D+00  E= 3.311244D+00  Symmetry=a1
              MO Center= -1.7D-14,  4.5D-15, -2.5D-14, r^2= 2.7D+00
   Bfn.  Coefficient  Atom+Function         Bfn.  Coefficient  Atom+Function  
  ----- ------------  ---------------      ----- ------------  ---------------
    30      3.265182   1 U  d  2             25     -2.036889   1 U  d  2      
    35     -1.968217   1 U  d  2              2     -1.476618   1 U  s         
     3      1.359345   1 U  s                28      1.351753   1 U  d  0      
     4      1.292641   1 U  s                85     -0.661084   2 O  s         
    99     -0.661084   3 O  s                33     -0.570024   1 U  d  0      

 Vector  150  Occ=0.000000D+00  E= 3.532146D+00  Symmetry=b3
              MO Center=  3.7D-16, -1.9D-17,  2.2D-16, r^2= 8.9D-01
   Bfn.  Coefficient  Atom+Function         Bfn.  Coefficient  Atom+Function  
  ----- ------------  ---------------      ----- ------------  ---------------
    63      1.149999   1 U  g -3             72     -0.614556   1 U  g -3      
   140      0.041489   6 O  d -1            154      0.041489   7 O  d -1      
    15      0.038828   1 U  px              135     -0.028808   6 O  s         
   149      0.028808   7 O  s               115      0.025981   4 I  pz        
   126     -0.025981   5 I  pz        

 Vector  151  Occ=0.000000D+00  E= 3.592373D+00  Symmetry=b1
              MO Center=  6.0D-17,  8.7D-17,  8.7D-16, r^2= 9.7D-01
   Bfn.  Coefficient  Atom+Function         Bfn.  Coefficient  Atom+Function  
  ----- ------------  ---------------      ----- ------------  ---------------
    64      0.937301   1 U  g -2             62      0.672905   1 U  g -4      
    73     -0.550833   1 U  g -2             71     -0.397027   1 U  g -4      
   137      0.161085   6 O  py              151     -0.161085   7 O  py        
    89      0.134880   2 O  d -2            103      0.134880   3 O  d -2      
    31     -0.128500   1 U  d -2             36      0.093484   1 U  d -2      

 Vector  152  Occ=0.000000D+00  E= 3.593866D+00  Symmetry=b2
              MO Center= -1.8D-17, -5.6D-17,  1.4D-17, r^2= 1.0D+00
   Bfn.  Coefficient  Atom+Function         Bfn.  Coefficient  Atom+Function  
  ----- ------------  ---------------      ----- ------------  ---------------
    69      1.144647   1 U  g  3             78     -0.670221   1 U  g  3      
    34     -0.233277   1 U  d  1             29     -0.182944   1 U  d  1      
    86     -0.182128   2 O  px              100      0.182128   3 O  px        
    24      0.146977   1 U  d  1            138     -0.139449   6 O  pz        
   152      0.139449   7 O  pz               76     -0.131157   1 U  g  1      

 Vector  153  Occ=0.000000D+00  E= 3.627455D+00  Symmetry=a1
              MO Center=  2.6D-16,  5.5D-16, -3.7D-15, r^2= 1.2D+00
   Bfn.  Coefficient  Atom+Function         Bfn.  Coefficient  Atom+Function  
  ----- ------------  ---------------      ----- ------------  ---------------
    68      1.044979   1 U  g  2             30     -0.901379   1 U  d  2      
    28      0.692300   1 U  d  0             77     -0.629107   1 U  g  2      
     3      0.593502   1 U  s                35      0.563776   1 U  d  2      
    25      0.536323   1 U  d  2              2     -0.484633   1 U  s         
    70      0.390965   1 U  g  4             23     -0.310393   1 U  d  0      

 Vector  154  Occ=0.000000D+00  E= 3.671255D+00  Symmetry=a1
              MO Center=  1.7D-15, -4.1D-16, -9.3D-14, r^2= 2.0D+00
   Bfn.  Coefficient  Atom+Function         Bfn.  Coefficient  Atom+Function  
  ----- ------------  ---------------      ----- ------------  ---------------
    28      3.327263   1 U  d  0              3      2.624549   1 U  s         
     2     -2.381586   1 U  s                 4      1.402786   1 U  s         
    23     -1.260743   1 U  d  0             85     -1.267012   2 O  s         
    99     -1.267012   3 O  s                33     -1.148214   1 U  d  0      
    88      1.088575   2 O  pz              102     -1.088575   3 O  pz        

 Vector  155  Occ=0.000000D+00  E= 3.682376D+00  Symmetry=b1
              MO Center=  3.2D-16, -1.9D-15,  3.4D-16, r^2= 1.1D+00
   Bfn.  Coefficient  Atom+Function         Bfn.  Coefficient  Atom+Function  
  ----- ------------  ---------------      ----- ------------  ---------------
    62      0.947760   1 U  g -4             64     -0.674845   1 U  g -2      
    71     -0.624522   1 U  g -4             73      0.445530   1 U  g -2      
   137      0.350852   6 O  py              151     -0.350852   7 O  py        
    31     -0.328352   1 U  d -2             26      0.174789   1 U  d -2      
    36      0.138358   1 U  d -2            159      0.133871   8 H  s         

 Vector  156  Occ=0.000000D+00  E= 3.932580D+00  Symmetry=b3
              MO Center=  2.4D-17,  3.5D-16, -1.4D-14, r^2= 1.7D+00
   Bfn.  Coefficient  Atom+Function         Bfn.  Coefficient  Atom+Function  
  ----- ------------  ---------------      ----- ------------  ---------------
    27      1.444307   1 U  d -1             74      1.299289   1 U  g -1      
    65     -1.135740   1 U  g -1             22     -0.837122   1 U  d -1      
    87     -0.579307   2 O  py              101      0.579307   3 O  py        
    90      0.538157   2 O  d -1            104      0.538157   3 O  d -1      
    37      0.263947   1 U  d -1             32     -0.127412   1 U  d -1      

 Vector  157  Occ=0.000000D+00  E= 3.952317D+00  Symmetry=b2
              MO Center=  7.2D-16,  3.9D-18, -1.5D-14, r^2= 1.6D+00
   Bfn.  Coefficient  Atom+Function         Bfn.  Coefficient  Atom+Function  
  ----- ------------  ---------------      ----- ------------  ---------------
    76      1.295637   1 U  g  1             29      1.236228   1 U  d  1      
    67     -1.149923   1 U  g  1             24     -0.698130   1 U  d  1      
    86      0.508172   2 O  px               92      0.506359   2 O  d  1      
   100     -0.508172   3 O  px              106      0.506359   3 O  d  1      
    39      0.122355   1 U  d  1             82      0.120092   2 O  px        

 Vector  158  Occ=0.000000D+00  E= 4.142455D+00  Symmetry=a1
              MO Center= -3.6D-14, -6.0D-16, -1.1D-14, r^2= 1.8D+00
   Bfn.  Coefficient  Atom+Function         Bfn.  Coefficient  Atom+Function  
  ----- ------------  ---------------      ----- ------------  ---------------
    30     -1.390471   1 U  d  2              3      1.289087   1 U  s         
     4     -1.036989   1 U  s                33      0.946692   1 U  d  0      
    25      0.940696   1 U  d  2             66      0.865488   1 U  g  0      
    85     -0.804092   2 O  s                99     -0.804092   3 O  s         
    75     -0.797044   1 U  g  0            135      0.796988   6 O  s         

 Vector  159  Occ=0.000000D+00  E= 4.582581D+00  Symmetry=a1
              MO Center= -3.4D-14,  1.6D-17, -1.1D-13, r^2= 2.8D+00
   Bfn.  Coefficient  Atom+Function         Bfn.  Coefficient  Atom+Function  
  ----- ------------  ---------------      ----- ------------  ---------------
    28      5.095891   1 U  d  0              3      3.085884   1 U  s         
     2     -2.662607   1 U  s                23     -2.545049   1 U  d  0      
    85     -2.121126   2 O  s                99     -2.121126   3 O  s         
    88      1.197823   2 O  pz              102     -1.197823   3 O  pz        
     4      1.046905   1 U  s                75      1.012783   1 U  g  0      

 Vector  160  Occ=0.000000D+00  E= 1.434762D+01  Symmetry=b2
              MO Center= -1.7D-16, -1.0D-13,  8.5D-17, r^2= 1.0D+01
   Bfn.  Coefficient  Atom+Function         Bfn.  Coefficient  Atom+Function  
  ----- ------------  ---------------      ----- ------------  ---------------
   109      2.371076   4 I  s               120     -2.371076   5 I  s         
    16      1.518740   1 U  py              108     -1.368618   4 I  s         
   119      1.368618   5 I  s                19      0.791525   1 U  py        
   114      0.751287   4 I  py              125      0.751287   5 I  py        
    13     -0.604162   1 U  py               57     -0.394626   1 U  f -1      

 Vector  161  Occ=0.000000D+00  E= 1.562975D+01  Symmetry=a1
              MO Center=  3.5D-16,  1.0D-13, -7.8D-17, r^2= 1.0D+01
   Bfn.  Coefficient  Atom+Function         Bfn.  Coefficient  Atom+Function  
  ----- ------------  ---------------      ----- ------------  ---------------
   109      2.526544   4 I  s               120      2.526544   5 I  s         
     4     -1.546209   1 U  s               108     -1.413265   4 I  s         
   119     -1.413265   5 I  s                40      1.097087   1 U  d  2      
   114      0.784073   4 I  py              125     -0.784073   5 I  py        
    38      0.742621   1 U  d  0              5     -0.571900   1 U  s         

 Vector  162  Occ=0.000000D+00  E= 1.985550D+01  Symmetry=b2
              MO Center=  1.1D-17, -4.8D-17, -4.1D-17, r^2= 3.5D-01
   Bfn.  Coefficient  Atom+Function         Bfn.  Coefficient  Atom+Function  
  ----- ------------  ---------------      ----- ------------  ---------------
     7      1.456525   1 U  py               10      1.424033   1 U  py        
    13     -1.185177   1 U  py               16      0.739131   1 U  py        
   109      0.362673   4 I  s               120     -0.362673   5 I  s         
    55     -0.248706   1 U  f -3             57     -0.212890   1 U  f -1      
   114      0.157444   4 I  py              125      0.157444   5 I  py        

 Vector  163  Occ=0.000000D+00  E= 1.988227D+01  Symmetry=b3
              MO Center= -1.2D-16, -9.1D-19,  2.9D-18, r^2= 3.1D-01
   Bfn.  Coefficient  Atom+Function         Bfn.  Coefficient  Atom+Function  
  ----- ------------  ---------------      ----- ------------  ---------------
     6      1.460730   1 U  px                9      1.421403   1 U  px        
    12     -1.080199   1 U  px               15      0.250682   1 U  px        
    54      0.119752   1 U  f  3            136     -0.111679   6 O  px        
   150     -0.111679   7 O  px               59      0.103669   1 U  f  1      
    61     -0.079899   1 U  f  3            135      0.079173   6 O  s         

 Vector  164  Occ=0.000000D+00  E= 2.026404D+01  Symmetry=b1
              MO Center=  5.9D-18,  8.0D-19, -2.2D-17, r^2= 3.3D-01
   Bfn.  Coefficient  Atom+Function         Bfn.  Coefficient  Atom+Function  
  ----- ------------  ---------------      ----- ------------  ---------------
    14      2.157362   1 U  pz               11     -1.931610   1 U  pz        
     8     -1.534139   1 U  pz               85     -0.768976   2 O  s         
    99      0.768976   3 O  s                51      0.550938   1 U  f  0      
    88      0.483360   2 O  pz              102      0.483360   3 O  pz        
    17      0.179149   1 U  pz               58     -0.125791   1 U  f  0      

 Vector  165  Occ=0.000000D+00  E= 2.303596D+01  Symmetry=a1
              MO Center=  4.6D-17,  9.1D-17, -1.7D-15, r^2= 2.3D-01
   Bfn.  Coefficient  Atom+Function         Bfn.  Coefficient  Atom+Function  
  ----- ------------  ---------------      ----- ------------  ---------------
     2      2.876438   1 U  s                 1      2.131598   1 U  s         
     3     -2.093874   1 U  s                28     -0.649968   1 U  d  0      
    85      0.603999   2 O  s                99      0.603999   3 O  s         
    88     -0.355382   2 O  pz              102      0.355382   3 O  pz        
    33     -0.227185   1 U  d  0             23      0.194042   1 U  d  0      


 center of mass
 --------------
 x =   0.00000000 y =   0.00000000 z =   0.00000000

 moments of inertia (a.u.)
 ------------------
        8670.107684438808           0.000000000000           0.000000000000
           0.000000000000        1074.658671150832           0.000000000000
           0.000000000000           0.000000000000        9026.475301160659

     Multipole analysis of the density
     ---------------------------------

     L   x y z        total         alpha         beta         nuclear
     -   - - -        -----         -----         ----         -------
     0   0 0 0     -0.000000    -32.000000    -32.000000     64.000000

     1   1 0 0     -0.000000     -0.000000     -0.000000      0.000000
     1   0 1 0      0.000000      0.000000      0.000000      0.000000
     1   0 0 1      0.000000      0.000000      0.000000      0.000000

     2   2 0 0    -49.545511   -228.730011   -228.730011    407.914512
     2   1 1 0      0.000000      0.000000      0.000000      0.000000
     2   1 0 1     -0.000000     -0.000000     -0.000000      0.000000
     2   0 2 0    -89.436841   -277.721416   -277.721416    466.005992
     2   0 1 1     -0.000000     -0.000000     -0.000000      0.000000
     2   0 0 2    -79.780281   -129.713950   -129.713950    179.647618


 Task  times  cpu:      415.9s     wall:      415.9s


                                NWChem Input Module
                                -------------------


 Summary of allocated global arrays
-----------------------------------
  No active global arrays


MA_summarize_allocated_blocks: starting scan ...
heap block 'gridpts', handle 109, address 0x5827dca08828:
	type of elements:		double precision
	number of elements:		33554432
	address of client space:	0x5827dca08880
	index for client space:		104215055
	total number of bytes:		268435552
MA_summarize_allocated_blocks: scan completed: 1 heap block, 0 stack blocks
MA usage statistics:

	allocation statistics:
					      heap	     stack
					      ----	     -----
	current number of blocks	         1	         0
	maximum number of blocks	        41	        62
	current total bytes		 268435552	         0
	maximum total bytes		 270931040	  43585288
	maximum total K-bytes		    270932	     43586
	maximum total M-bytes		       271	        44


                                     CITATION
                                     --------
                Please cite the following reference when publishing
                           results obtained with NWChem:

          E. Apra, E. J. Bylaska, W. A. de Jong, N. Govind, K. Kowalski,
       T. P. Straatsma, M. Valiev, H. J. J. van Dam, Y. Alexeev, J. Anchell,
       V. Anisimov, F. W. Aquino, R. Atta-Fynn, J. Autschbach, N. P. Bauman,
     J. C. Becca, D. E. Bernholdt, K. Bhaskaran-Nair, S. Bogatko, P. Borowski,
         J. Boschen, J. Brabec, A. Bruner, E. Cauet, Y. Chen, G. N. Chuev,
      C. J. Cramer, J. Daily, M. J. O. Deegan, T. H. Dunning Jr., M. Dupuis,
   K. G. Dyall, G. I. Fann, S. A. Fischer, A. Fonari, H. Fruchtl, L. Gagliardi,
      J. Garza, N. Gawande, S. Ghosh, K. Glaesemann, A. W. Gotz, J. Hammond,
       V. Helms, E. D. Hermes, K. Hirao, S. Hirata, M. Jacquelin, L. Jensen,
   B. G. Johnson, H. Jonsson, R. A. Kendall, M. Klemm, R. Kobayashi, V. Konkov,
      S. Krishnamoorthy, M. Krishnan, Z. Lin, R. D. Lins, R. J. Littlefield,
      A. J. Logsdail, K. Lopata, W. Ma, A. V. Marenich, J. Martin del Campo,
   D. Mejia-Rodriguez, J. E. Moore, J. M. Mullin, T. Nakajima, D. R. Nascimento,
    J. A. Nichols, P. J. Nichols, J. Nieplocha, A. Otero-de-la-Roza, B. Palmer,
    A. Panyala, T. Pirojsirikul, B. Peng, R. Peverati, J. Pittner, L. Pollack,
   R. M. Richard, P. Sadayappan, G. C. Schatz, W. A. Shelton, D. W. Silverstein,
   D. M. A. Smith, T. A. Soares, D. Song, M. Swart, H. L. Taylor, G. S. Thomas,
            V. Tipparaju, D. G. Truhlar, K. Tsemekhman, T. Van Voorhis,
      A. Vazquez-Mayagoitia, P. Verma, O. Villa, A. Vishnu, K. D. Vogiatzis,
        D. Wang, J. H. Weare, M. J. Williamson, T. L. Windus, K. Wolinski,
        A. T. Wong, Q. Wu, C. Yang, Q. Yu, M. Zacharias, Z. Zhang, Y. Zhao,
                                and R. J. Harrison
                        "NWChem: Past, present, and future
                         J. Chem. Phys. 152, 184102 (2020)
                               doi:10.1063/5.0004997

                                      AUTHORS
                                      -------
        E. Apra, E. J. Bylaska, N. Govind, K. Kowalski, D. Mejia-Rodriguez,
        N. P. Bauman, A. Panyala, R. J. Harrison, M. Valiev, W. A. de Jong,
       T. P. Straatsma, H. J. J. van Dam, D. Wang, T. L. Windus, J. Hammond,
     J. Autschbach, R. de P. Soares, A. Kunitsa, K. Bhaskaran-Nair, J. Brabec,
      K. Lopata, S. A. Fischer, S. Krishnamoorthy, M. Jacquelin, R. Goswami,
       A. Woods, W. Ma, M. Klemm, O. Villa, Y. Chen, V. Anisimov, F. Aquino,
     S. Hirata, M. T. Hackler, E. Hermes, L. Jensen, J. E. Moore, J. C. Becca,
      V. Konjkov, T. Risthaus, M. Malagoli, A. Marenich, A. Otero-de-la-Roza,
        J. Mullin, P. Nichols, R. Peverati, J. Pittner, Y. Zhao, P.-D. Fan,
        A. Fonari, M. J. Williamson, J. R. Rehr, M. Dupuis, D. Silverstein,
    D. M. A. Smith, J. Nieplocha, V. Tipparaju, M. Krishnan, B. E. Van Kuiken,
        A. Vazquez-Mayagoitia, M. Swart, Q. Wu, T. Van Voorhis, A. A. Auer,
     M. Nooijen, L. D. Crosby, E. Brown, G. Cisneros, G. I. Fann, H. Fruchtl,
   J. Garza, K. Hirao, R. A. Kendall, J. A. Nichols, K. Tsemekhman, K. Wolinski,
     J. Anchell, D. E. Bernholdt, P. Borowski, T. Clark, D. Clerc, H. Dachsel,
   M. J. O. Deegan, K. Dyall, D. Elwood, E. Glendening, M. Gutowski, A. C. Hess,
         J. Jaffe, B. G. Johnson, J. Ju, R. Kobayashi, R. Kutteh, Z. Lin,
   R. Littlefield, X. Long, B. Meng, T. Nakajima, S. Niu, L. Pollack, M. Rosing,
   K. Glaesemann, G. Sandrone, M. Stave, H. Taylor, G. Thomas, J. H. van Lenthe,
                               A. T. Wong, Z. Zhang.

 Total times  cpu:      416.1s     wall:      416.1s
