
     Program PWSCF v.7.5 starts on 29Aug2026 at 11:44:17 

     This program is part of the open-source Quantum ESPRESSO suite
     for quantum simulation of materials; please cite
         "P. Giannozzi et al., J. Phys.:Condens. Matter 21 395502 (2009);
         "P. Giannozzi et al., J. Phys.:Condens. Matter 29 465901 (2017);
         "P. Giannozzi et al., J. Chem. Phys. 152 154105 (2020);
          URL http://www.quantum-espresso.org", 
     in publications or presentations arising from this work. More details at
     http://www.quantum-espresso.org/quote

     Parallel version (MPI & OpenMP), running on       8 processor cores
     Number of MPI processes:                 4
     Threads/MPI process:                     2

     MPI processes distributed on     1 nodes
     7118 MiB available memory on the printing compute node when the environment starts

     Reading input from espresso.pwi
Warning: card &CELL ignored
Warning: card &FCP ignored
Warning: card &RISM ignored

     Current dimensions of program PWSCF are:
     Max number of different atomic species (ntypx) = 10
     Max number of k-points (npk) =  40000
     Max angular momentum in pseudopotentials (lmaxx) =  4
     Message from routine setup:
     using ibrav=0 with symmetry is DISCOURAGED, use correct ibrav instead

     R & G space division:  proc/nbgrp/npool/nimage =       4
     Subspace diagonalization in iterative solution of the eigenvalue problem:
     a serial algorithm will be used


     Parallelization info
     --------------------
     sticks:   dense  smooth     PW     G-vecs:    dense   smooth      PW
     Min          73      73     22                  821      821     152
     Max          74      74     23                  823      823     153
     Sum         295     295     91                 3287     3287     609

     Using Slab Decomposition



     bravais-lattice index     =            0
     lattice parameter (alat)  =       7.2558  a.u.
     unit-cell volume          =     270.1072 (a.u.)^3
     number of atoms/cell      =            2
     number of atomic types    =            1
     number of electrons       =         8.00
     number of Kohn-Sham states=            8
     kinetic-energy cutoff     =      20.0000  Ry
     charge density cutoff     =      80.0000  Ry
     scf convergence threshold =      1.0E-06
     mixing beta               =       0.7000
     number of iterations used =            8  plain     mixing
     Exchange-correlation= PBE
                           (   1   4   3   4   0   0   0)

     celldm(1)=   7.255773  celldm(2)=   0.000000  celldm(3)=   0.000000
     celldm(4)=   0.000000  celldm(5)=   0.000000  celldm(6)=   0.000000

     crystal axes: (cart. coord. in units of alat)
               a(1) = (   0.000000   0.707107   0.707107 )  
               a(2) = (   0.707107   0.000000   0.707107 )  
               a(3) = (   0.707107   0.707107   0.000000 )  

     reciprocal axes: (cart. coord. in units 2 pi/alat)
               b(1) = ( -0.707107  0.707107  0.707107 )  
               b(2) = (  0.707107 -0.707107  0.707107 )  
               b(3) = (  0.707107  0.707107 -0.707107 )  


     PseudoPot. # 1 for Si read from file:
     /home/compchemisteman/Molecular-and-Materials-Modeling-2026-Homework/Molecular-Modeling-Homework/challenge1.1/script5/Si.upf
     MD5 check sum: d8e8ea3dd55db7858206a05f373c9c65
     Pseudo is Norm-conserving + core correction, Zval =  4.0
     Generated using ONCVPSP code by D. R. Hamann
     Using radial grid of 1528 points,  6 beta functions with: 
                l(1) =   0
                l(2) =   0
                l(3) =   1
                l(4) =   1
                l(5) =   2
                l(6) =   2

     atomic species   valence    mass     pseudopotential
     Si                4.00    28.08500     Si( 1.00)

     48 Sym. Ops., with inversion, found (24 have fractional translation)



   Cartesian axes

     site n.     atom                  positions (alat units)
         1        Si     tau(   1) = (   0.0000000   0.0000000   0.0000000  )
         2        Si     tau(   2) = (   0.3535534   0.3535534   0.3535534  )

     number of k points=     8  Gaussian smearing, width (Ry)=  0.0200
                       cart. coord. in units 2pi/alat
        k(    1) = (   0.0000000   0.0000000   0.0000000), wk =   0.0312500
        k(    2) = (   0.1767767   0.1767767  -0.1767767), wk =   0.2500000
        k(    3) = (  -0.3535534  -0.3535534   0.3535534), wk =   0.1250000
        k(    4) = (   0.3535534   0.0000000   0.0000000), wk =   0.1875000
        k(    5) = (  -0.1767767  -0.5303301   0.5303301), wk =   0.7500000
        k(    6) = (   0.0000000  -0.3535534   0.3535534), wk =   0.3750000
        k(    7) = (  -0.7071068   0.0000000   0.0000000), wk =   0.0937500
        k(    8) = (  -0.7071068   0.3535534   0.0000000), wk =   0.1875000

     Dense  grid:     3287 G-vectors     FFT dimensions: (  24,  24,  24)

     Estimated max dynamical RAM per process >       1.53 MB

     Estimated total dynamical RAM >       6.13 MB

     Initial potential from superposition of free atoms

     starting charge       7.9988, renormalised to       8.0000
     Starting wfcs are    8 randomized atomic wfcs

     total cpu time spent up to now is        0.3 secs

     per-process dynamical memory:     7.4 Mb

     Self-consistent Calculation

     iteration #  1     ecut=    20.00 Ry     beta= 0.70
     Davidson diagonalization with overlap
     ethr =  1.00E-02,  avg # of iterations =  4.1

     Threshold (ethr) on eigenvalues was too large:
     Diagonalizing with lowered threshold

     Davidson diagonalization with overlap
     ethr =  7.29E-04,  avg # of iterations =  1.2

     total cpu time spent up to now is        0.4 secs

     total energy              =     -16.90595407 Ry
     estimated scf accuracy    <       0.06209676 Ry

     iteration #  2     ecut=    20.00 Ry     beta= 0.70
     Davidson diagonalization with overlap
     ethr =  7.76E-04,  avg # of iterations =  1.0

     total cpu time spent up to now is        0.4 secs

     total energy              =     -16.90843000 Ry
     estimated scf accuracy    <       0.00241497 Ry

     iteration #  3     ecut=    20.00 Ry     beta= 0.70
     Davidson diagonalization with overlap
     ethr =  3.02E-05,  avg # of iterations =  3.0

     total cpu time spent up to now is        0.4 secs

     total energy              =     -16.90855382 Ry
     estimated scf accuracy    <       0.00004238 Ry

     iteration #  4     ecut=    20.00 Ry     beta= 0.70
     Davidson diagonalization with overlap
     ethr =  5.30E-07,  avg # of iterations =  3.2

     total cpu time spent up to now is        0.5 secs

     End of self-consistent calculation

          k = 0.0000 0.0000 0.0000 (   411 PWs)   bands (ev):

    -5.6977   6.2868   6.2868   6.2868   8.8234   8.8234   8.8234   9.6272

          k = 0.1768 0.1768-0.1768 (   401 PWs)   bands (ev):

    -4.8974   2.3406   5.5166   5.5166   8.2996   9.7757   9.7758  13.1925

          k =-0.3536-0.3536 0.3536 (   410 PWs)   bands (ev):

    -3.3636  -0.7086   5.0736   5.0736   7.8152   9.6137   9.6138  13.9991

          k = 0.3536 0.0000 0.0000 (   415 PWs)   bands (ev):

    -4.6156   2.7571   4.3775   4.3775   7.3965   9.4089  12.0460  12.0460

          k =-0.1768-0.5303 0.5303 (   412 PWs)   bands (ev):

    -2.9776  -0.1164   2.7288   4.0612   7.7919  10.7360  12.0282  12.2061

          k = 0.0000-0.3536 0.3536 (   407 PWs)   bands (ev):

    -3.6524   0.7875   2.5090   4.9439   8.7208  11.0588  11.4347  12.4168

          k =-0.7071 0.0000 0.0000 (   412 PWs)   bands (ev):

    -1.5501  -1.5501   3.4110   3.4110   6.9806   6.9806  16.3786  16.3787

          k =-0.7071 0.3536 0.0000 (   412 PWs)   bands (ev):

    -1.3853  -1.3853   2.4074   2.4074  10.5635  10.5635  11.2741  11.2741

     the Fermi energy is     6.6033 ev

!    total energy              =     -16.90856382 Ry
     estimated scf accuracy    <       0.00000065 Ry
     smearing contrib. (-TS)   =      -0.00029176 Ry
     internal energy E=F+TS    =     -16.90827206 Ry

     The total energy is F=E-TS. E is the sum of the following terms:
     one-electron contribution =       4.96830942 Ry
     hartree contribution      =       1.11611534 Ry
     xc contribution           =      -6.19375307 Ry
     ewald contribution        =     -16.79894375 Ry

     convergence has been achieved in   4 iterations

     Forces acting on atoms (cartesian axes, Ry/au):

     atom    1 type  1   force =     0.00000000    0.00000000    0.00000000
     atom    2 type  1   force =     0.00000000    0.00000000    0.00000000

     Total force =     0.000000     Total SCF correction =     0.000000


     Computing stress (Cartesian axis) and pressure

          total   stress  (Ry/bohr**3)                   (kbar)     P=       22.58
   0.00015351  -0.00000000  -0.00000000           22.58       -0.00       -0.00
  -0.00000000   0.00015351  -0.00000000           -0.00       22.58       -0.00
  -0.00000000  -0.00000000   0.00015351           -0.00       -0.00       22.58


     Writing all to output data dir /home/compchemisteman/Molecular-and-Materials-Modeling-2026-Homework/Molecular-Modeling-Homework/challenge1.1/script5/tmp/si_test.save/ :
     XML data file, charge density, pseudopotentials, collected wavefunctions

     init_run     :      0.22s CPU      0.21s WALL (       1 calls)
     electrons    :      0.37s CPU      0.20s WALL (       1 calls)
     forces       :      0.01s CPU      0.01s WALL (       1 calls)
     stress       :      0.04s CPU      0.03s WALL (       1 calls)

     Called by init_run:
     wfcinit      :      0.02s CPU      0.01s WALL (       1 calls)
     potinit      :      0.01s CPU      0.01s WALL (       1 calls)
     hinit0       :      0.19s CPU      0.18s WALL (       1 calls)

     Called by electrons:
     c_bands      :      0.30s CPU      0.16s WALL (       5 calls)
     sum_band     :      0.04s CPU      0.03s WALL (       5 calls)
     v_of_rho     :      0.02s CPU      0.01s WALL (       5 calls)
     mix_rho      :      0.00s CPU      0.00s WALL (       5 calls)

     Called by c_bands:
     init_us_2    :      0.02s CPU      0.01s WALL (     104 calls)
     cegterg      :      0.27s CPU      0.15s WALL (      40 calls)

     Called by *egterg:
     cdiaghg      :      0.03s CPU      0.02s WALL (     133 calls)
     h_psi        :      0.22s CPU      0.12s WALL (     149 calls)
     g_psi        :      0.01s CPU      0.00s WALL (     101 calls)

     Called by h_psi:
     h_psi:calbec :      0.01s CPU      0.01s WALL (     149 calls)
     vloc_psi     :      0.20s CPU      0.11s WALL (     149 calls)
                                        0.00s GPU  (     149 calls)
     add_vuspsi   :      0.01s CPU      0.00s WALL (     149 calls)

     General routines
     calbec       :      0.03s CPU      0.02s WALL (     285 calls)
     fft          :      0.17s CPU      0.16s WALL (      75 calls)
     ffts         :      0.00s CPU      0.00s WALL (       5 calls)
     fftw         :      0.20s CPU      0.11s WALL (    2100 calls)

     Parallel routines

     PWSCF        :      0.76s CPU      0.55s WALL


   This run was terminated on:  11:44:17  29Aug2026            

=------------------------------------------------------------------------------=
   JOB DONE.
=------------------------------------------------------------------------------=
