
     Program PWSCF v.7.5 starts on  2Sep2026 at 15:51:24 

     This program is part of the open-source Quantum ESPRESSO suite
     for quantum simulation of materials; please cite
         "P. Giannozzi et al., J. Phys.:Condens. Matter 21 395502 (2009);
         "P. Giannozzi et al., J. Phys.:Condens. Matter 29 465901 (2017);
         "P. Giannozzi et al., J. Chem. Phys. 152 154105 (2020);
          URL http://www.quantum-espresso.org", 
     in publications or presentations arising from this work. More details at
     http://www.quantum-espresso.org/quote

     Parallel version (MPI & OpenMP), running on       4 processor cores
     Number of MPI processes:                 4
     Threads/MPI process:                     1

     MPI processes distributed on     1 nodes
     6941 MiB available memory on the printing compute node when the environment starts

     Reading input from espresso.pwi
Warning: card &CELL ignored
Warning: card &FCP ignored
Warning: card &RISM ignored

     Current dimensions of program PWSCF are:
     Max number of different atomic species (ntypx) = 10
     Max number of k-points (npk) =  40000
     Max angular momentum in pseudopotentials (lmaxx) =  4
     Message from routine setup:
     using ibrav=0 with symmetry is DISCOURAGED, use correct ibrav instead

     R & G space division:  proc/nbgrp/npool/nimage =       4
     Subspace diagonalization in iterative solution of the eigenvalue problem:
     a serial algorithm will be used


     Parallelization info
     --------------------
     sticks:   dense  smooth     PW     G-vecs:    dense   smooth      PW
     Min         238     238     75                 4892     4892     869
     Max         239     239     76                 4896     4896     872
     Sum         955     955    301                19579    19579    3479

     Using Slab Decomposition



     bravais-lattice index     =            0
     lattice parameter (alat)  =       7.3091  a.u.
     unit-cell volume          =     276.0640 (a.u.)^3
     number of atoms/cell      =            2
     number of atomic types    =            1
     number of electrons       =         8.00
     number of Kohn-Sham states=            8
     kinetic-energy cutoff     =      65.0000  Ry
     charge density cutoff     =     260.0000  Ry
     scf convergence threshold =      1.0E-10
     mixing beta               =       0.7000
     number of iterations used =            8  plain     mixing
     Exchange-correlation= PBE
                           (   1   4   3   4   0   0   0)

     celldm(1)=   7.309100  celldm(2)=   0.000000  celldm(3)=   0.000000
     celldm(4)=   0.000000  celldm(5)=   0.000000  celldm(6)=   0.000000

     crystal axes: (cart. coord. in units of alat)
               a(1) = (   0.000000   0.707107   0.707107 )  
               a(2) = (   0.707046   0.000024   0.707083 )  
               a(3) = (   0.707046   0.707083   0.000024 )  

     reciprocal axes: (cart. coord. in units 2 pi/alat)
               b(1) = ( -0.707168  0.707107  0.707107 )  
               b(2) = (  0.707168 -0.707155  0.707155 )  
               b(3) = (  0.707168  0.707155 -0.707155 )  


     PseudoPot. # 1 for Si read from file:
     ./Si.upf
     MD5 check sum: 0b0bb1205258b0d07b9f9672cf965d36
     Pseudo is Ultrasoft + core correction, Zval =  4.0
     Generated using "atomic" code by A. Dal Corso  v.5.1
     Using radial grid of 1141 points,  6 beta functions with: 
                l(1) =   0
                l(2) =   0
                l(3) =   1
                l(4) =   1
                l(5) =   2
                l(6) =   2
     Q(r) pseudized with 0 coefficients 


     atomic species   valence    mass     pseudopotential
     Si                4.00    28.08500     Si( 1.00)

      4 Sym. Ops. (no inversion) found



   Cartesian axes

     site n.     atom                  positions (alat units)
         1        Si     tau(   1) = (   0.3600953   1.0606602   1.0606602  )
         2        Si     tau(   2) = (   0.0064491   0.0000000   0.0000000  )

     number of k points=   512  Gaussian smearing, width (Ry)=  0.0100

     Number of k-points >= 100: set verbosity='high' to print them.

     Dense  grid:    19579 G-vectors     FFT dimensions: (  40,  40,  40)

     Estimated max dynamical RAM per process >      57.98 MB

     Estimated total dynamical RAM >     231.92 MB

     Initial potential from superposition of free atoms

     starting charge       7.9989, renormalised to       8.0000
     Starting wfcs are    8 randomized atomic wfcs

     total cpu time spent up to now is        6.4 secs

     per-process dynamical memory:    53.8 Mb

     Self-consistent Calculation

     iteration #  1     ecut=    65.00 Ry     beta= 0.70
     Davidson diagonalization with overlap
     ethr =  1.00E-02,  avg # of iterations =  4.3

     Threshold (ethr) on eigenvalues was too large:
     Diagonalizing with lowered threshold

     Davidson diagonalization with overlap
     ethr =  6.22E-04,  avg # of iterations =  1.9

     total cpu time spent up to now is       48.5 secs

     total energy              =     -22.83796221 Ry
     estimated scf accuracy    <       0.05345160 Ry

     iteration #  2     ecut=    65.00 Ry     beta= 0.70
     Davidson diagonalization with overlap
     ethr =  6.68E-04,  avg # of iterations =  1.1

     total cpu time spent up to now is       63.8 secs

     total energy              =     -22.84008580 Ry
     estimated scf accuracy    <       0.00221760 Ry

     iteration #  3     ecut=    65.00 Ry     beta= 0.70
     Davidson diagonalization with overlap
     ethr =  2.77E-05,  avg # of iterations =  5.4

     total cpu time spent up to now is       86.9 secs

     total energy              =     -22.84021890 Ry
     estimated scf accuracy    <       0.00004562 Ry

     iteration #  4     ecut=    65.00 Ry     beta= 0.70
     Davidson diagonalization with overlap
     ethr =  5.70E-07,  avg # of iterations =  4.2

     total cpu time spent up to now is      109.6 secs

     total energy              =     -22.84022669 Ry
     estimated scf accuracy    <       0.00000009 Ry

     iteration #  5     ecut=    65.00 Ry     beta= 0.70
     Davidson diagonalization with overlap
     ethr =  1.16E-09,  avg # of iterations =  3.7

     total cpu time spent up to now is      132.5 secs

     total energy              =     -22.84022693 Ry
     estimated scf accuracy    <          5.8E-09 Ry

     iteration #  6     ecut=    65.00 Ry     beta= 0.70
     Davidson diagonalization with overlap
     ethr =  7.22E-11,  avg # of iterations =  2.1

     total cpu time spent up to now is      151.5 secs

     End of self-consistent calculation

     Number of k-points >= 100: set verbosity='high' to print the bands.

     the Fermi energy is     6.2818 ev

!    total energy              =     -22.84022694 Ry
     estimated scf accuracy    <          4.8E-11 Ry
     smearing contrib. (-TS)   =      -0.00000011 Ry
     internal energy E=F+TS    =     -22.84022683 Ry

     The total energy is F=E-TS. E is the sum of the following terms:
     one-electron contribution =       5.00047446 Ry
     hartree contribution      =       1.11936589 Ry
     xc contribution           =     -12.28283071 Ry
     ewald contribution        =     -16.67723646 Ry

     convergence has been achieved in   6 iterations

     Forces acting on atoms (cartesian axes, Ry/au):

     atom    1 type  1   force =    -0.00026688    0.00000000    0.00000000
     atom    2 type  1   force =     0.00026688    0.00000000    0.00000000

     Total force =     0.000377     Total SCF correction =     0.000000


     Computing stress (Cartesian axis) and pressure

          total   stress  (Ry/bohr**3)                   (kbar)     P=       -0.10
  -0.00000045  -0.00000000  -0.00000000           -0.07       -0.00       -0.00
  -0.00000000  -0.00000080  -0.00000161           -0.00       -0.12       -0.24
  -0.00000000  -0.00000161  -0.00000080           -0.00       -0.24       -0.12


     Writing all to output data dir ./tmp/si.save/ :
     XML data file, charge density, pseudopotentials, collected wavefunctions

     init_run     :      5.83s CPU      6.18s WALL (       1 calls)
     electrons    :    137.50s CPU    145.13s WALL (       1 calls)
     forces       :      1.89s CPU      1.96s WALL (       1 calls)
     stress       :      7.89s CPU      8.03s WALL (       1 calls)

     Called by init_run:
     wfcinit      :      5.24s CPU      5.58s WALL (       1 calls)
     potinit      :      0.04s CPU      0.04s WALL (       1 calls)
     hinit0       :      0.44s CPU      0.44s WALL (       1 calls)

     Called by electrons:
     c_bands      :    117.35s CPU    123.92s WALL (       7 calls)
     sum_band     :     19.77s CPU     20.81s WALL (       7 calls)
     v_of_rho     :      0.15s CPU      0.15s WALL (       7 calls)
     newd         :      0.29s CPU      0.29s WALL (       7 calls)
     mix_rho      :      0.01s CPU      0.01s WALL (       7 calls)

     Called by c_bands:
     init_us_2    :      5.22s CPU      5.50s WALL (    8704 calls)
     cegterg      :    108.80s CPU    114.98s WALL (    3584 calls)

     Called by *egterg:
     cdiaghg      :      3.28s CPU      3.49s WALL (   14718 calls)
     h_psi        :     97.34s CPU    102.98s WALL (   15742 calls)
     s_psi        :      2.14s CPU      2.29s WALL (   15742 calls)
     g_psi        :      0.99s CPU      1.05s WALL (   11646 calls)

     Called by h_psi:
     h_psi:calbec :      4.73s CPU      5.04s WALL (   15742 calls)
     vloc_psi     :     89.46s CPU     94.58s WALL (   15742 calls)
                                        0.00s GPU  (   15742 calls)
     add_vuspsi   :      2.60s CPU      2.78s WALL (   15742 calls)

     General routines
     calbec       :     10.06s CPU     10.57s WALL (   28030 calls)
     fft          :      0.32s CPU      0.32s WALL (     103 calls)
     ffts         :      0.00s CPU      0.01s WALL (       7 calls)
     fftw         :     94.44s CPU     99.77s WALL (  194364 calls)

     Parallel routines

     PWSCF        :   2m34.11s CPU   2m42.96s WALL


   This run was terminated on:  15:54: 7   2Sep2026            

=------------------------------------------------------------------------------=
   JOB DONE.
=------------------------------------------------------------------------------=
