
     Program PWSCF v.7.5 starts on  1Sep2026 at 13:57:45 

     This program is part of the open-source Quantum ESPRESSO suite
     for quantum simulation of materials; please cite
         "P. Giannozzi et al., J. Phys.:Condens. Matter 21 395502 (2009);
         "P. Giannozzi et al., J. Phys.:Condens. Matter 29 465901 (2017);
         "P. Giannozzi et al., J. Chem. Phys. 152 154105 (2020);
          URL http://www.quantum-espresso.org", 
     in publications or presentations arising from this work. More details at
     http://www.quantum-espresso.org/quote

     Parallel version (MPI & OpenMP), running on       4 processor cores
     Number of MPI processes:                 4
     Threads/MPI process:                     1

     MPI processes distributed on     1 nodes
     6859 MiB available memory on the printing compute node when the environment starts

     Reading input from espresso.pwi
Warning: card &CELL ignored
Warning: card &FCP ignored
Warning: card &RISM ignored

     Current dimensions of program PWSCF are:
     Max number of different atomic species (ntypx) = 10
     Max number of k-points (npk) =  40000
     Max angular momentum in pseudopotentials (lmaxx) =  4
     file C.pbe-n-kjpaw_psl.1.0.0.UPF: wavefunction(s)  2S 2P renormalized

     R & G space division:  proc/nbgrp/npool/nimage =       4
     Subspace diagonalization in iterative solution of the eigenvalue problem:
     a serial algorithm will be used


     Parallelization info
     --------------------
     sticks:   dense  smooth     PW     G-vecs:    dense   smooth      PW
     Min        1880    1880    471               122858   122858   15361
     Max        1881    1881    472               122859   122859   15362
     Sum        7521    7521   1885               491433   491433   61445

     Using Slab Decomposition



     bravais-lattice index     =            0
     lattice parameter (alat)  =      22.6767  a.u.
     unit-cell volume          =   11661.1220 (a.u.)^3
     number of atoms/cell      =            5
     number of atomic types    =            2
     number of electrons       =         8.00
     number of Kohn-Sham states=            8
     kinetic-energy cutoff     =      46.0000  Ry
     charge density cutoff     =     184.0000  Ry
     scf convergence threshold =      1.0E-08
     mixing beta               =       0.7000
     number of iterations used =            8  plain     mixing
     Exchange-correlation= SLA  PW   PBX  PBC
                           (   1   4   3   4   0   0   0)

     celldm(1)=  22.676713  celldm(2)=   0.000000  celldm(3)=   0.000000
     celldm(4)=   0.000000  celldm(5)=   0.000000  celldm(6)=   0.000000

     crystal axes: (cart. coord. in units of alat)
               a(1) = (   1.000000   0.000000   0.000000 )  
               a(2) = (   0.000000   1.000000   0.000000 )  
               a(3) = (   0.000000   0.000000   1.000000 )  

     reciprocal axes: (cart. coord. in units 2 pi/alat)
               b(1) = (  1.000000  0.000000  0.000000 )  
               b(2) = (  0.000000  1.000000  0.000000 )  
               b(3) = (  0.000000  0.000000  1.000000 )  


     PseudoPot. # 1 for C  read from file:
     /usr/share/espresso/pseudo/C.pbe-n-kjpaw_psl.1.0.0.UPF
     MD5 check sum: 5d2aebdfa2cae82b50a7e79e9516da0f
     Pseudo is Projector augmented-wave + core cor, Zval =  4.0
     Generated using "atomic" code by A. Dal Corso  v.5.1
     Shape of augmentation charge: PSQ
     Using radial grid of 1073 points,  4 beta functions with: 
                l(1) =   0
                l(2) =   0
                l(3) =   1
                l(4) =   1
     Q(r) pseudized with 0 coefficients 


     PseudoPot. # 2 for H  read from file:
     /usr/share/espresso/pseudo/H.pbe-kjpaw.UPF
     MD5 check sum: a225a3f3a1be5237eb8f6a7e61cbb4ee
     Pseudo is Projector augmented-wave, Zval =  1.0
     Generated using "atomic" code by A. Dal Corso (espresso distribution)
     Shape of augmentation charge: PSQ
     Using radial grid of  929 points,  2 beta functions with: 
                l(1) =   0
                l(2) =   0
     Q(r) pseudized with 0 coefficients 


     atomic species   valence    mass     pseudopotential
     C                 4.00    12.01100     C ( 1.00)
     H                 1.00     1.00800     H ( 1.00)

     No symmetry found



   Cartesian axes

     site n.     atom                  positions (alat units)
         1        C      tau(   1) = (   0.5000000   0.5000000   0.5000000  )
         2        H      tau(   2) = (   0.5527221   0.5527221   0.5527221  )
         3        H      tau(   3) = (   0.4472779   0.4472778   0.5527222  )
         4        H      tau(   4) = (   0.5527222   0.4472779   0.4472779  )
         5        H      tau(   5) = (   0.4472778   0.5527222   0.4472778  )

     number of k points=     1  Gaussian smearing, width (Ry)=  0.0200
                       cart. coord. in units 2pi/alat
        k(    1) = (   0.0000000   0.0000000   0.0000000), wk =   2.0000000

     Dense  grid:   491433 G-vectors     FFT dimensions: ( 100, 100, 100)

     Estimated max dynamical RAM per process >     178.55 MB

     Estimated total dynamical RAM >     714.18 MB

     Check: negative core charge=   -0.000003

     Initial potential from superposition of free atoms

     starting charge       7.9999, renormalised to       8.0000

     negative rho (up, down):  2.234E-03 0.000E+00
     Starting wfcs are    8 randomized atomic wfcs
     Checking if some PAW data can be deallocated... 

     total cpu time spent up to now is        1.6 secs

     per-process dynamical memory:    66.1 Mb

     Self-consistent Calculation

     iteration #  1     ecut=    46.00 Ry     beta= 0.70
     Davidson diagonalization with overlap
     ethr =  1.00E-02,  avg # of iterations =  5.0

     negative rho (up, down):  2.008E-03 0.000E+00

     total cpu time spent up to now is        3.5 secs

     total energy              =     -22.99000412 Ry
     estimated scf accuracy    <       0.67888257 Ry

     iteration #  2     ecut=    46.00 Ry     beta= 0.70
     Davidson diagonalization with overlap
     ethr =  8.49E-03,  avg # of iterations =  2.0

     negative rho (up, down):  1.880E-03 0.000E+00

     total cpu time spent up to now is        5.1 secs

     total energy              =     -23.15149110 Ry
     estimated scf accuracy    <       0.27209431 Ry

     iteration #  3     ecut=    46.00 Ry     beta= 0.70
     Davidson diagonalization with overlap
     ethr =  3.40E-03,  avg # of iterations =  2.0

     negative rho (up, down):  2.058E-03 0.000E+00

     total cpu time spent up to now is        6.7 secs

     total energy              =     -23.20233581 Ry
     estimated scf accuracy    <       0.00401887 Ry

     iteration #  4     ecut=    46.00 Ry     beta= 0.70
     Davidson diagonalization with overlap
     ethr =  5.02E-05,  avg # of iterations =  9.0

     negative rho (up, down):  1.993E-03 0.000E+00

     total cpu time spent up to now is        9.0 secs

     total energy              =     -23.20314191 Ry
     estimated scf accuracy    <       0.00062643 Ry

     iteration #  5     ecut=    46.00 Ry     beta= 0.70
     Davidson diagonalization with overlap
     ethr =  7.83E-06,  avg # of iterations = 18.0

     negative rho (up, down):  1.967E-03 0.000E+00

     total cpu time spent up to now is       11.2 secs

     total energy              =     -23.20314996 Ry
     estimated scf accuracy    <       0.00004190 Ry

     iteration #  6     ecut=    46.00 Ry     beta= 0.70
     Davidson diagonalization with overlap
     ethr =  5.24E-07,  avg # of iterations =  3.0

     negative rho (up, down):  1.981E-03 0.000E+00

     total cpu time spent up to now is       12.9 secs

     total energy              =     -23.20316070 Ry
     estimated scf accuracy    <       0.00008665 Ry

     iteration #  7     ecut=    46.00 Ry     beta= 0.70
     Davidson diagonalization with overlap
     ethr =  5.24E-07,  avg # of iterations =  2.0

     negative rho (up, down):  1.985E-03 0.000E+00

     total cpu time spent up to now is       14.5 secs

     total energy              =     -23.20317127 Ry
     estimated scf accuracy    <       0.00000151 Ry

     iteration #  8     ecut=    46.00 Ry     beta= 0.70
     Davidson diagonalization with overlap
     ethr =  1.89E-08,  avg # of iterations =  3.0

     negative rho (up, down):  1.984E-03 0.000E+00

     total cpu time spent up to now is       16.3 secs

     total energy              =     -23.20317211 Ry
     estimated scf accuracy    <       0.00000032 Ry

     iteration #  9     ecut=    46.00 Ry     beta= 0.70
     Davidson diagonalization with overlap
     ethr =  4.06E-09,  avg # of iterations =  1.0

     negative rho (up, down):  1.984E-03 0.000E+00

     total cpu time spent up to now is       17.8 secs

     total energy              =     -23.20317205 Ry
     estimated scf accuracy    <       0.00000013 Ry

     iteration # 10     ecut=    46.00 Ry     beta= 0.70
     Davidson diagonalization with overlap
     ethr =  1.66E-09,  avg # of iterations =  2.0

     negative rho (up, down):  1.984E-03 0.000E+00

     total cpu time spent up to now is       19.3 secs

     End of self-consistent calculation

          k = 0.0000 0.0000 0.0000 ( 61445 PWs)   bands (ev):

   -16.9225  -9.3280  -9.3280  -9.3280  -0.7896   0.1526   0.3145   0.3145

     the Fermi energy is    -2.6342 ev

!    total energy              =     -23.20317208 Ry
     total all-electron energy =       -80.967270 Ry
     estimated scf accuracy    <          1.3E-10 Ry
     smearing contrib. (-TS)   =      -0.00000000 Ry
     internal energy E=F+TS    =     -23.20317208 Ry

     The total energy is F=E-TS. E is the sum of the following terms:
     one-electron contribution =     -43.06927432 Ry
     hartree contribution      =      22.46588640 Ry
     xc contribution           =      -7.47874133 Ry
     ewald contribution        =      11.04299806 Ry
     one-center paw contrib.   =      -6.16404088 Ry

     convergence has been achieved in  10 iterations

     negative rho (up, down):  1.984E-03 0.000E+00

     Forces acting on atoms (cartesian axes, Ry/au):

     atom    1 type  1   force =    -0.00000212    0.00000156   -0.00000211
     atom    2 type  2   force =     0.00004803    0.00004817    0.00004808
     atom    3 type  2   force =    -0.00004784   -0.00004780    0.00004779
     atom    4 type  2   force =     0.00004781   -0.00004787   -0.00004790
     atom    5 type  2   force =    -0.00004588    0.00004593   -0.00004586

     Total force =     0.000164     Total SCF correction =     0.000005


     Computing stress (Cartesian axis) and pressure


     negative rho (up, down):  1.984E-03 0.000E+00
          total   stress  (Ry/bohr**3)                   (kbar)     P=       -0.04
  -0.00000028   0.00000000  -0.00000000           -0.04        0.00       -0.00
   0.00000000  -0.00000028   0.00000000            0.00       -0.04        0.00
  -0.00000000   0.00000000  -0.00000028           -0.00        0.00       -0.04


     Writing all to output data dir ./outdir/ch4.save/ :
     XML data file, charge density, pseudopotentials, collected wavefunctions

     init_run     :      1.46s CPU      1.51s WALL (       1 calls)
     electrons    :     17.59s CPU     17.74s WALL (       1 calls)
     forces       :      0.80s CPU      0.87s WALL (       1 calls)
     stress       :      2.30s CPU      4.13s WALL (       1 calls)

     Called by init_run:
     wfcinit      :      0.17s CPU      0.17s WALL (       1 calls)
     potinit      :      0.42s CPU      0.46s WALL (       1 calls)
     hinit0       :      0.52s CPU      0.51s WALL (       1 calls)

     Called by electrons:
     c_bands      :      6.82s CPU      6.58s WALL (      10 calls)
     sum_band     :      3.82s CPU      4.11s WALL (      10 calls)
     v_of_rho     :      3.61s CPU      3.53s WALL (      11 calls)
     newd         :      1.93s CPU      2.20s WALL (      11 calls)
     PAW_pot      :      0.95s CPU      0.90s WALL (      11 calls)
     mix_rho      :      0.87s CPU      0.86s WALL (      10 calls)

     Called by c_bands:
     init_us_2    :      0.20s CPU      0.20s WALL (      22 calls)
     cegterg      :      6.66s CPU      6.43s WALL (      10 calls)

     Called by *egterg:
     cdiaghg      :      0.01s CPU      0.01s WALL (      57 calls)
     h_psi        :      5.86s CPU      5.66s WALL (      58 calls)
     s_psi        :      0.11s CPU      0.10s WALL (      58 calls)
     g_psi        :      0.08s CPU      0.08s WALL (      47 calls)

     Called by h_psi:
     h_psi:calbec :      0.13s CPU      0.13s WALL (      58 calls)
     vloc_psi     :      5.55s CPU      5.37s WALL (      58 calls)
                                        0.00s GPU  (      58 calls)
     add_vuspsi   :      0.13s CPU      0.12s WALL (      58 calls)

     General routines
     calbec       :      0.22s CPU      0.21s WALL (      85 calls)
     fft          :      3.08s CPU      3.06s WALL (     146 calls)
     ffts         :      0.15s CPU      0.16s WALL (      10 calls)
     fftw         :      5.26s CPU      5.09s WALL (     640 calls)

     Parallel routines

     PWSCF        :     22.31s CPU     24.42s WALL


   This run was terminated on:  13:58: 9   1Sep2026            

=------------------------------------------------------------------------------=
   JOB DONE.
=------------------------------------------------------------------------------=
