&CONTROL
   calculation      = 'scf'
   verbosity        = 'low'
   tstress          = .true.
   tprnfor          = .true.
   outdir           = './outdir'
   prefix           = 'ch4'
   pseudo_dir       = '/usr/share/espresso/pseudo/'
/
&SYSTEM
   ibrav            = 0
   ecutwfc          = 46.0
   nosym            = .true.
   noinv            = .true.
   occupations      = 'smearing'
   degauss          = 0.02
   smearing         = 'gaussian'
   ntyp             = 2
   nat              = 5
/
&ELECTRONS
   conv_thr         = 1e-08
   mixing_beta      = 0.7
   diagonalization  = 'david'
/
&IONS
/
&CELL
/
&FCP
/
&RISM
/
ATOMIC_SPECIES
C 12.011 C.pbe-n-kjpaw_psl.1.0.0.UPF
H 1.008 H.pbe-kjpaw.UPF

K_POINTS automatic
1 1 1  0 0 0

CELL_PARAMETERS angstrom
12.00000000000000 0.00000000000000 0.00000000000000
0.00000000000000 12.00000000000000 0.00000000000000
0.00000000000000 0.00000000000000 12.00000000000000

ATOMIC_POSITIONS angstrom
C 6.0000004790 5.9999996437 6.0000004475  
H 6.6326657905 6.6326651872 6.6326657977  
H 5.3673345936 5.3673341569 6.6326660143  
H 6.6326659768 5.3673342171 5.3673345923  
H 5.3673331678 6.6326667950 5.3673331517  

