
     Program PWSCF v.7.5 starts on  2Sep2026 at 15: 0:10 

     This program is part of the open-source Quantum ESPRESSO suite
     for quantum simulation of materials; please cite
         "P. Giannozzi et al., J. Phys.:Condens. Matter 21 395502 (2009);
         "P. Giannozzi et al., J. Phys.:Condens. Matter 29 465901 (2017);
         "P. Giannozzi et al., J. Chem. Phys. 152 154105 (2020);
          URL http://www.quantum-espresso.org", 
     in publications or presentations arising from this work. More details at
     http://www.quantum-espresso.org/quote

     Parallel version (MPI & OpenMP), running on       4 processor cores
     Number of MPI processes:                 4
     Threads/MPI process:                     1

     MPI processes distributed on     1 nodes
     7260 MiB available memory on the printing compute node when the environment starts

     Waiting for input...
     Reading input from standard input

     Current dimensions of program PWSCF are:
     Max number of different atomic species (ntypx) = 10
     Max number of k-points (npk) =  40000
     Max angular momentum in pseudopotentials (lmaxx) =  4
     Message from routine setup:
     using ibrav=0 with symmetry is DISCOURAGED, use correct ibrav instead

     R & G space division:  proc/nbgrp/npool/nimage =       4
     Subspace diagonalization in iterative solution of the eigenvalue problem:
     a serial algorithm will be used


     Parallelization info
     --------------------
     sticks:   dense  smooth     PW     G-vecs:    dense   smooth      PW
     Min         162     162     49                 2753     2753     477
     Max         163     163     50                 2757     2757     481
     Sum         649     649    199                11017    11017    1917

     Using Slab Decomposition



     bravais-lattice index     =            0
     lattice parameter (alat)  =       7.2555  a.u.
     unit-cell volume          =     270.0773 (a.u.)^3
     number of atoms/cell      =            2
     number of atomic types    =            1
     number of electrons       =         8.00
     number of Kohn-Sham states=            8
     kinetic-energy cutoff     =      45.0000  Ry
     charge density cutoff     =     180.0000  Ry
     scf convergence threshold =      1.0E-10
     mixing beta               =       0.7000
     number of iterations used =            8  plain     mixing
     energy convergence thresh.=      1.0E-05
     force convergence thresh. =      5.0E-04
     press convergence thresh. =      5.0E-01
     Exchange-correlation= PBE
                           (   1   4   3   4   0   0   0)
     nstep                     =           50


     celldm(1)=   7.255506  celldm(2)=   0.000000  celldm(3)=   0.000000
     celldm(4)=   0.000000  celldm(5)=   0.000000  celldm(6)=   0.000000

     crystal axes: (cart. coord. in units of alat)
               a(1) = (   0.000000   0.707107   0.707107 )  
               a(2) = (   0.707107   0.000000   0.707107 )  
               a(3) = (   0.707107   0.707107   0.000000 )  

     reciprocal axes: (cart. coord. in units 2 pi/alat)
               b(1) = ( -0.707107  0.707107  0.707107 )  
               b(2) = (  0.707107 -0.707107  0.707107 )  
               b(3) = (  0.707107  0.707107 -0.707107 )  


     PseudoPot. # 1 for Si read from file:
     ./Si.upf
     MD5 check sum: 0b0bb1205258b0d07b9f9672cf965d36
     Pseudo is Ultrasoft + core correction, Zval =  4.0
     Generated using "atomic" code by A. Dal Corso  v.5.1
     Using radial grid of 1141 points,  6 beta functions with: 
                l(1) =   0
                l(2) =   0
                l(3) =   1
                l(4) =   1
                l(5) =   2
                l(6) =   2
     Q(r) pseudized with 0 coefficients 


     atomic species   valence    mass     pseudopotential
     Si                4.00    28.08500     Si( 1.00)

      4 Sym. Ops. (no inversion) found



   Cartesian axes

     site n.     atom                  positions (alat units)
         1        Si     tau(   1) = (   0.3665761   1.0606602   1.0606602  )
         2        Si     tau(   2) = (   0.0000000   0.0000000   0.0000000  )

     number of k points=   280  Gaussian smearing, width (Ry)=  0.0100

     Number of k-points >= 100: set verbosity='high' to print them.

     Dense  grid:    11017 G-vectors     FFT dimensions: (  32,  32,  32)

     Estimated max dynamical RAM per process >      24.30 MB

     Estimated total dynamical RAM >      97.19 MB

     Initial potential from superposition of free atoms

     starting charge       7.9989, renormalised to       8.0000
     Starting wfcs are    8 randomized atomic wfcs

     total cpu time spent up to now is        1.6 secs

     per-process dynamical memory:    24.1 Mb

     Self-consistent Calculation

     iteration #  1     ecut=    45.00 Ry     beta= 0.70
     Davidson diagonalization with overlap
     ethr =  1.00E-02,  avg # of iterations =  4.3

     Threshold (ethr) on eigenvalues was too large:
     Diagonalizing with lowered threshold

     Davidson diagonalization with overlap
     ethr =  6.46E-04,  avg # of iterations =  1.8

     total cpu time spent up to now is        6.5 secs

     total energy              =     -22.83600998 Ry
     estimated scf accuracy    <       0.05551528 Ry

     iteration #  2     ecut=    45.00 Ry     beta= 0.70
     Davidson diagonalization with overlap
     ethr =  6.94E-04,  avg # of iterations =  1.1

     total cpu time spent up to now is        8.8 secs

     total energy              =     -22.83834756 Ry
     estimated scf accuracy    <       0.00218980 Ry

     iteration #  3     ecut=    45.00 Ry     beta= 0.70
     Davidson diagonalization with overlap
     ethr =  2.74E-05,  avg # of iterations =  5.2

     total cpu time spent up to now is       12.1 secs

     total energy              =     -22.83848557 Ry
     estimated scf accuracy    <       0.00004863 Ry

     iteration #  4     ecut=    45.00 Ry     beta= 0.70
     Davidson diagonalization with overlap
     ethr =  6.08E-07,  avg # of iterations =  4.4

     total cpu time spent up to now is       14.8 secs

     total energy              =     -22.83849325 Ry
     estimated scf accuracy    <       0.00000010 Ry

     iteration #  5     ecut=    45.00 Ry     beta= 0.70
     Davidson diagonalization with overlap
     ethr =  1.23E-09,  avg # of iterations =  3.7

     total cpu time spent up to now is       17.2 secs

     total energy              =     -22.83849350 Ry
     estimated scf accuracy    <          7.6E-09 Ry

     iteration #  6     ecut=    45.00 Ry     beta= 0.70
     Davidson diagonalization with overlap
     ethr =  9.47E-11,  avg # of iterations =  2.1

     total cpu time spent up to now is       19.8 secs

     total energy              =     -22.83849350 Ry
     estimated scf accuracy    <          1.8E-10 Ry

     iteration #  7     ecut=    45.00 Ry     beta= 0.70
     Davidson diagonalization with overlap
     ethr =  2.29E-12,  avg # of iterations =  3.4

     total cpu time spent up to now is       21.9 secs

     End of self-consistent calculation

     Number of k-points >= 100: set verbosity='high' to print the bands.

     the Fermi energy is     6.5680 ev

!    total energy              =     -22.83849350 Ry
     estimated scf accuracy    <          1.3E-11 Ry
     smearing contrib. (-TS)   =      -0.00000450 Ry
     internal energy E=F+TS    =     -22.83848899 Ry

     The total energy is F=E-TS. E is the sum of the following terms:
     one-electron contribution =       5.16826226 Ry
     hartree contribution      =       1.10012047 Ry
     xc contribution           =     -12.30952240 Ry
     ewald contribution        =     -16.79734932 Ry

     convergence has been achieved in   7 iterations

     Forces acting on atoms (cartesian axes, Ry/au):

     atom    1 type  1   force =    -0.02648985    0.00000000    0.00000000
     atom    2 type  1   force =     0.02648985    0.00000000    0.00000000

     Total force =     0.037462     Total SCF correction =     0.000000


     Computing stress (Cartesian axis) and pressure

          total   stress  (Ry/bohr**3)                   (kbar)     P=       21.13
   0.00013601   0.00000000   0.00000000           20.01        0.00        0.00
   0.00000000   0.00014747  -0.00013693            0.00       21.69      -20.14
   0.00000000  -0.00013693   0.00014747            0.00      -20.14       21.69


     BFGS Geometry Optimization
     Energy error            =      2.1E-03 Ry
     Gradient error          =      2.6E-02 Ry/Bohr
     Cell gradient error     =      2.2E+01 kbar

     number of scf cycles    =   1
     number of bfgs steps    =   0

     enthalpy           new  =     -22.8384934989 Ry

     new trust radius        =       0.0264898524 bohr
     new conv_thr            =            1.0E-10 Ry

     new unit-cell volume =    272.99439 a.u.^3 (    40.45360 Ang^3 )
     density =      2.30567 g/cm^3

CELL_PARAMETERS (angstrom)
   0.000000000   2.715615977   2.715615977
   2.724131271  -0.009293478   2.724909454
   2.724131271   2.724909454  -0.009293478

ATOMIC_POSITIONS (angstrom)
Si               1.3981701566        4.0734239652        4.0734239652
Si               0.0140654900        0.0000000000        0.0000000000



     Writing config-only to output data dir ./pwscf.save/ :
     XML data file
     NEW-OLD atomic charge density approx. for the potential
     New effective cutoffs (rho, wfc):  179.49   44.96

     total cpu time spent up to now is       23.8 secs

     per-process dynamical memory:    32.6 Mb

     Self-consistent Calculation

     iteration #  1     ecut=    45.00 Ry     beta= 0.70
     Davidson diagonalization with overlap
     c_bands:  1 eigenvalues not converged
     ethr =  1.00E-06,  avg # of iterations =  6.5

     total cpu time spent up to now is       29.0 secs

     total energy              =     -22.83986351 Ry
     estimated scf accuracy    <       0.00004951 Ry

     iteration #  2     ecut=    45.00 Ry     beta= 0.70
     Davidson diagonalization with overlap
     ethr =  6.19E-07,  avg # of iterations =  1.1

     total cpu time spent up to now is       31.3 secs

     total energy              =     -22.83986861 Ry
     estimated scf accuracy    <       0.00000197 Ry

     iteration #  3     ecut=    45.00 Ry     beta= 0.70
     Davidson diagonalization with overlap
     ethr =  2.47E-08,  avg # of iterations =  2.0

     total cpu time spent up to now is       34.0 secs

     total energy              =     -22.83986891 Ry
     estimated scf accuracy    <       0.00000011 Ry

     iteration #  4     ecut=    45.00 Ry     beta= 0.70
     Davidson diagonalization with overlap
     ethr =  1.37E-09,  avg # of iterations =  2.7

     total cpu time spent up to now is       36.7 secs

     total energy              =     -22.83986893 Ry
     estimated scf accuracy    <          5.7E-10 Ry

     iteration #  5     ecut=    45.00 Ry     beta= 0.70
     Davidson diagonalization with overlap
     ethr =  7.06E-12,  avg # of iterations =  4.0

     total cpu time spent up to now is       39.5 secs

     End of self-consistent calculation

     Number of k-points >= 100: set verbosity='high' to print the bands.

     the Fermi energy is     6.4159 ev

!    total energy              =     -22.83986894 Ry
     estimated scf accuracy    <          6.6E-11 Ry
     smearing contrib. (-TS)   =      -0.00000082 Ry
     internal energy E=F+TS    =     -22.83986812 Ry

     The total energy is F=E-TS. E is the sum of the following terms:
     one-electron contribution =       5.08697389 Ry
     hartree contribution      =       1.10916210 Ry
     xc contribution           =     -12.29620228 Ry
     ewald contribution        =     -16.73980183 Ry

     convergence has been achieved in   5 iterations

     Forces acting on atoms (cartesian axes, Ry/au):

     atom    1 type  1   force =    -0.00891743    0.00000000    0.00000000
     atom    2 type  1   force =     0.00891743    0.00000000    0.00000000

     Total force =     0.012611     Total SCF correction =     0.000005


     Computing stress (Cartesian axis) and pressure

          total   stress  (Ry/bohr**3)                   (kbar)     P=        9.98
   0.00006760   0.00000000   0.00000000            9.95        0.00        0.00
   0.00000000   0.00006801  -0.00000935            0.00       10.00       -1.38
   0.00000000  -0.00000935   0.00006801            0.00       -1.38       10.00

     Energy error            =      1.4E-03 Ry
     Gradient error          =      8.9E-03 Ry/Bohr
     Cell gradient error     =      1.0E+01 kbar

     number of scf cycles    =   2
     number of bfgs steps    =   1

     enthalpy           old  =     -22.8384934989 Ry
     enthalpy           new  =     -22.8398689368 Ry

     CASE: enthalpy          _new < enthalpy          _old

     new trust radius        =       0.0142113643 bohr
     new conv_thr            =            1.8E-11 Ry

     new unit-cell volume =    275.17188 a.u.^3 (    40.77627 Ang^3 )
     density =      2.28742 g/cm^3

CELL_PARAMETERS (angstrom)
   0.000000000   2.721663556   2.721663556
   2.731320245  -0.010493251   2.732156808
   2.731320245   2.732156808  -0.010493251

ATOMIC_POSITIONS (angstrom)
Si               1.3943197475        4.0824953344        4.0824953344
Si               0.0216427850       -0.0000000000       -0.0000000000



     Writing config-only to output data dir ./pwscf.save/ :
     XML data file
     NEW-OLD atomic charge density approx. for the potential
     New effective cutoffs (rho, wfc):  178.64   44.76

     total cpu time spent up to now is       41.3 secs

     per-process dynamical memory:    32.7 Mb

     Self-consistent Calculation

     iteration #  1     ecut=    45.00 Ry     beta= 0.70
     Davidson diagonalization with overlap
     ethr =  1.00E-06,  avg # of iterations =  4.7

     total cpu time spent up to now is       45.9 secs

     total energy              =     -22.84009656 Ry
     estimated scf accuracy    <       0.00000903 Ry

     iteration #  2     ecut=    45.00 Ry     beta= 0.70
     Davidson diagonalization with overlap
     ethr =  1.13E-07,  avg # of iterations =  1.5

     total cpu time spent up to now is       48.2 secs

     total energy              =     -22.84009748 Ry
     estimated scf accuracy    <       0.00000052 Ry

     iteration #  3     ecut=    45.00 Ry     beta= 0.70
     Davidson diagonalization with overlap
     ethr =  6.52E-09,  avg # of iterations =  2.0

     total cpu time spent up to now is       50.8 secs

     total energy              =     -22.84009756 Ry
     estimated scf accuracy    <          8.7E-09 Ry

     iteration #  4     ecut=    45.00 Ry     beta= 0.70
     Davidson diagonalization with overlap
     ethr =  1.08E-10,  avg # of iterations =  3.7

     total cpu time spent up to now is       54.3 secs

     total energy              =     -22.84009756 Ry
     estimated scf accuracy    <          1.9E-10 Ry

     iteration #  5     ecut=    45.00 Ry     beta= 0.70
     Davidson diagonalization with overlap
     ethr =  2.33E-12,  avg # of iterations =  2.3

     total cpu time spent up to now is       57.0 secs

     total energy              =     -22.84009756 Ry
     estimated scf accuracy    <          2.1E-11 Ry

     iteration #  6     ecut=    45.00 Ry     beta= 0.70
     Davidson diagonalization with overlap
     ethr =  2.58E-13,  avg # of iterations =  2.1

     total cpu time spent up to now is       59.9 secs

     End of self-consistent calculation

     Number of k-points >= 100: set verbosity='high' to print the bands.

     the Fermi energy is     6.3143 ev

!    total energy              =     -22.84009756 Ry
     estimated scf accuracy    <          7.7E-13 Ry
     smearing contrib. (-TS)   =      -0.00000026 Ry
     internal energy E=F+TS    =     -22.84009730 Ry

     The total energy is F=E-TS. E is the sum of the following terms:
     one-electron contribution =       5.02541015 Ry
     hartree contribution      =       1.11649056 Ry
     xc contribution           =     -12.28667818 Ry
     ewald contribution        =     -16.69531983 Ry

     convergence has been achieved in   6 iterations

     Forces acting on atoms (cartesian axes, Ry/au):

     atom    1 type  1   force =    -0.00083467    0.00000000    0.00000000
     atom    2 type  1   force =     0.00083467    0.00000000    0.00000000

     Total force =     0.001180     Total SCF correction =     0.000000


     Computing stress (Cartesian axis) and pressure

          total   stress  (Ry/bohr**3)                   (kbar)     P=        2.73
   0.00001963   0.00000000   0.00000000            2.89        0.00        0.00
   0.00000000   0.00001802   0.00003492            0.00        2.65        5.14
   0.00000000   0.00003492   0.00001802            0.00        5.14        2.65

     Energy error            =      2.3E-04 Ry
     Gradient error          =      8.3E-04 Ry/Bohr
     Cell gradient error     =      5.1E+00 kbar

     number of scf cycles    =   3
     number of bfgs steps    =   2

     enthalpy           old  =     -22.8398689368 Ry
     enthalpy           new  =     -22.8400975647 Ry

     CASE: enthalpy          _new < enthalpy          _old

     new trust radius        =       0.0041100902 bohr
     new conv_thr            =            1.7E-12 Ry

     new unit-cell volume =    275.86970 a.u.^3 (    40.87967 Ang^3 )
     density =      2.28163 g/cm^3

CELL_PARAMETERS (angstrom)
   0.000000000   2.726426711   2.726426711
   2.733686557  -0.007999477   2.734426188
   2.733686557   2.734426188  -0.007999477

ATOMIC_POSITIONS (angstrom)
Si               1.3940747144        4.0896400666        4.0896400666
Si               0.0231145538       -0.0000000000       -0.0000000000



     Writing config-only to output data dir ./pwscf.save/ :
     XML data file
     NEW-OLD atomic charge density approx. for the potential
     New effective cutoffs (rho, wfc):  178.12   44.61

     total cpu time spent up to now is       61.7 secs

     per-process dynamical memory:    32.9 Mb

     Self-consistent Calculation

     iteration #  1     ecut=    45.00 Ry     beta= 0.70
     Davidson diagonalization with overlap
     ethr =  1.00E-06,  avg # of iterations =  2.1

     Threshold (ethr) on eigenvalues was too large:
     Diagonalizing with lowered threshold

     Davidson diagonalization with overlap
     ethr =  1.21E-08,  avg # of iterations =  3.3

     total cpu time spent up to now is       68.9 secs

     total energy              =     -22.84012363 Ry
     estimated scf accuracy    <       0.00000082 Ry

     iteration #  2     ecut=    45.00 Ry     beta= 0.70
     Davidson diagonalization with overlap
     ethr =  1.03E-08,  avg # of iterations =  1.9

     total cpu time spent up to now is       71.9 secs

     total energy              =     -22.84012375 Ry
     estimated scf accuracy    <       0.00000002 Ry

     iteration #  3     ecut=    45.00 Ry     beta= 0.70
     Davidson diagonalization with overlap
     ethr =  2.85E-10,  avg # of iterations =  2.2

     total cpu time spent up to now is       75.0 secs

     total energy              =     -22.84012376 Ry
     estimated scf accuracy    <          1.6E-09 Ry

     iteration #  4     ecut=    45.00 Ry     beta= 0.70
     Davidson diagonalization with overlap
     ethr =  1.98E-11,  avg # of iterations =  2.3

     total cpu time spent up to now is       78.1 secs

     total energy              =     -22.84012376 Ry
     estimated scf accuracy    <          2.3E-11 Ry

     iteration #  5     ecut=    45.00 Ry     beta= 0.70
     Davidson diagonalization with overlap
     ethr =  2.86E-13,  avg # of iterations =  3.9

     total cpu time spent up to now is       81.5 secs

     total energy              =     -22.84012376 Ry
     estimated scf accuracy    <          8.5E-12 Ry

     iteration #  6     ecut=    45.00 Ry     beta= 0.70
     Davidson diagonalization with overlap
     ethr =  1.07E-13,  avg # of iterations =  1.3

     total cpu time spent up to now is       84.1 secs

     End of self-consistent calculation

     Number of k-points >= 100: set verbosity='high' to print the bands.

     the Fermi energy is     6.2865 ev

!    total energy              =     -22.84012376 Ry
     estimated scf accuracy    <          3.0E-13 Ry
     smearing contrib. (-TS)   =      -0.00000021 Ry
     internal energy E=F+TS    =     -22.84012355 Ry

     The total energy is F=E-TS. E is the sum of the following terms:
     one-electron contribution =       5.00591813 Ry
     hartree contribution      =       1.11877254 Ry
     xc contribution           =     -12.28364789 Ry
     ewald contribution        =     -16.68116633 Ry

     convergence has been achieved in   6 iterations

     Forces acting on atoms (cartesian axes, Ry/au):

     atom    1 type  1   force =    -0.00002111    0.00000000   -0.00000000
     atom    2 type  1   force =     0.00002111   -0.00000000    0.00000000

     Total force =     0.000030     Total SCF correction =     0.000000


     Computing stress (Cartesian axis) and pressure

          total   stress  (Ry/bohr**3)                   (kbar)     P=        0.48
   0.00000430   0.00000000   0.00000000            0.63        0.00        0.00
   0.00000000   0.00000271   0.00002949            0.00        0.40        4.34
   0.00000000   0.00002949   0.00000271            0.00        4.34        0.40

     Energy error            =      2.6E-05 Ry
     Gradient error          =      2.1E-05 Ry/Bohr
     Cell gradient error     =      4.3E+00 kbar

     number of scf cycles    =   4
     number of bfgs steps    =   3

     enthalpy           old  =     -22.8400975647 Ry
     enthalpy           new  =     -22.8401237596 Ry

     CASE: enthalpy          _new < enthalpy          _old

     new trust radius        =       0.0060593324 bohr
     new conv_thr            =            1.0E-12 Ry

     new unit-cell volume =    276.42470 a.u.^3 (    40.96191 Ang^3 )
     density =      2.27705 g/cm^3

CELL_PARAMETERS (angstrom)
   0.000000000   2.732838917   2.732838917
   2.735658416  -0.003340146   2.736179063
   2.735658416   2.736179063  -0.003340146

ATOMIC_POSITIONS (angstrom)
Si               1.3938810604        4.0992583758        4.0992583758
Si               0.0243304528        0.0000000000        0.0000000000



     Writing config-only to output data dir ./pwscf.save/ :
     XML data file
     NEW-OLD atomic charge density approx. for the potential
     New effective cutoffs (rho, wfc):  177.49   44.40

     total cpu time spent up to now is       87.2 secs

     per-process dynamical memory:    32.9 Mb

     Self-consistent Calculation

     iteration #  1     ecut=    45.00 Ry     beta= 0.70
     Davidson diagonalization with overlap
     ethr =  1.00E-06,  avg # of iterations =  2.5

     Threshold (ethr) on eigenvalues was too large:
     Diagonalizing with lowered threshold

     Davidson diagonalization with overlap
     ethr =  2.16E-08,  avg # of iterations =  3.7

     total cpu time spent up to now is       94.0 secs

     total energy              =     -22.84014154 Ry
     estimated scf accuracy    <       0.00000218 Ry

     iteration #  2     ecut=    45.00 Ry     beta= 0.70
     Davidson diagonalization with overlap
     ethr =  2.73E-08,  avg # of iterations =  2.1

     total cpu time spent up to now is       97.3 secs

     total energy              =     -22.84014193 Ry
     estimated scf accuracy    <       0.00000003 Ry

     iteration #  3     ecut=    45.00 Ry     beta= 0.70
     Davidson diagonalization with overlap
     ethr =  3.74E-10,  avg # of iterations =  2.3

     total cpu time spent up to now is      100.8 secs

     total energy              =     -22.84014193 Ry
     estimated scf accuracy    <          2.5E-09 Ry

     iteration #  4     ecut=    45.00 Ry     beta= 0.70
     Davidson diagonalization with overlap
     ethr =  3.08E-11,  avg # of iterations =  2.2

     total cpu time spent up to now is      104.3 secs

     total energy              =     -22.84014194 Ry
     estimated scf accuracy    <          7.2E-11 Ry

     iteration #  5     ecut=    45.00 Ry     beta= 0.70
     Davidson diagonalization with overlap
     ethr =  8.94E-13,  avg # of iterations =  3.8

     total cpu time spent up to now is      107.7 secs

     total energy              =     -22.84014194 Ry
     estimated scf accuracy    <          1.9E-11 Ry

     iteration #  6     ecut=    45.00 Ry     beta= 0.70
     Davidson diagonalization with overlap
     ethr =  2.41E-13,  avg # of iterations =  1.6

     total cpu time spent up to now is      110.4 secs

     End of self-consistent calculation

     Number of k-points >= 100: set verbosity='high' to print the bands.

     the Fermi energy is     6.2655 ev

!    total energy              =     -22.84014194 Ry
     estimated scf accuracy    <          2.4E-13 Ry
     smearing contrib. (-TS)   =      -0.00000018 Ry
     internal energy E=F+TS    =     -22.84014176 Ry

     The total energy is F=E-TS. E is the sum of the following terms:
     one-electron contribution =       4.99052528 Ry
     hartree contribution      =       1.12055614 Ry
     xc contribution           =     -12.28124113 Ry
     ewald contribution        =     -16.66998205 Ry

     convergence has been achieved in   6 iterations

     Forces acting on atoms (cartesian axes, Ry/au):

     atom    1 type  1   force =    -0.00001532    0.00000000    0.00000000
     atom    2 type  1   force =     0.00001532    0.00000000    0.00000000

     Total force =     0.000022     Total SCF correction =     0.000000


     Computing stress (Cartesian axis) and pressure

          total   stress  (Ry/bohr**3)                   (kbar)     P=       -1.30
  -0.00000807   0.00000000   0.00000000           -1.19        0.00        0.00
   0.00000000  -0.00000926   0.00001225            0.00       -1.36        1.80
   0.00000000   0.00001225  -0.00000926            0.00        1.80       -1.36

     Energy error            =      1.8E-05 Ry
     Gradient error          =      1.5E-05 Ry/Bohr
     Cell gradient error     =      1.8E+00 kbar

     number of scf cycles    =   5
     number of bfgs steps    =   4

     enthalpy           old  =     -22.8401237596 Ry
     enthalpy           new  =     -22.8401419354 Ry

     CASE: enthalpy          _new < enthalpy          _old

     new trust radius        =       0.0026413468 bohr
     new conv_thr            =            1.0E-12 Ry

     new unit-cell volume =    276.35841 a.u.^3 (    40.95209 Ang^3 )
     density =      2.27760 g/cm^3

CELL_PARAMETERS (angstrom)
   0.000000000   2.734725848   2.734725848
   2.735539259  -0.001182906   2.735908754
   2.735539259   2.735908754  -0.001182906

ATOMIC_POSITIONS (angstrom)
Si               1.3934682225        4.1020887714        4.1020887714
Si               0.0246815181       -0.0000000000       -0.0000000000



     Writing config-only to output data dir ./pwscf.save/ :
     XML data file
     NEW-OLD atomic charge density approx. for the potential
     New effective cutoffs (rho, wfc):  177.34   44.34

     total cpu time spent up to now is      112.5 secs

     per-process dynamical memory:    32.9 Mb

     Self-consistent Calculation

     iteration #  1     ecut=    45.00 Ry     beta= 0.70
     Davidson diagonalization with overlap
     ethr =  1.00E-06,  avg # of iterations =  2.0

     Threshold (ethr) on eigenvalues was too large:
     Diagonalizing with lowered threshold

     Davidson diagonalization with overlap
     ethr =  2.86E-09,  avg # of iterations =  3.9

     total cpu time spent up to now is      121.0 secs

     total energy              =     -22.84014595 Ry
     estimated scf accuracy    <       0.00000046 Ry

     iteration #  2     ecut=    45.00 Ry     beta= 0.70
     Davidson diagonalization with overlap
     ethr =  5.76E-09,  avg # of iterations =  2.0

     total cpu time spent up to now is      124.4 secs

     total energy              =     -22.84014604 Ry
     estimated scf accuracy    <          5.4E-09 Ry

     iteration #  3     ecut=    45.00 Ry     beta= 0.70
     Davidson diagonalization with overlap
     ethr =  6.75E-11,  avg # of iterations =  2.2

     total cpu time spent up to now is      127.4 secs

     total energy              =     -22.84014604 Ry
     estimated scf accuracy    <          4.2E-10 Ry

     iteration #  4     ecut=    45.00 Ry     beta= 0.70
     Davidson diagonalization with overlap
     ethr =  5.23E-12,  avg # of iterations =  2.5

     total cpu time spent up to now is      131.6 secs

     total energy              =     -22.84014604 Ry
     estimated scf accuracy    <          1.5E-11 Ry

     iteration #  5     ecut=    45.00 Ry     beta= 0.70
     Davidson diagonalization with overlap
     ethr =  1.88E-13,  avg # of iterations =  3.7

     total cpu time spent up to now is      136.0 secs

     total energy              =     -22.84014604 Ry
     estimated scf accuracy    <          2.9E-12 Ry

     iteration #  6     ecut=    45.00 Ry     beta= 0.70
     Davidson diagonalization with overlap
     ethr =  1.00E-13,  avg # of iterations =  1.0

     total cpu time spent up to now is      138.9 secs

     End of self-consistent calculation

     Number of k-points >= 100: set verbosity='high' to print the bands.

     the Fermi energy is     6.2674 ev

!    total energy              =     -22.84014604 Ry
     estimated scf accuracy    <          6.1E-14 Ry
     smearing contrib. (-TS)   =      -0.00000018 Ry
     internal energy E=F+TS    =     -22.84014586 Ry

     The total energy is F=E-TS. E is the sum of the following terms:
     one-electron contribution =       4.99235815 Ry
     hartree contribution      =       1.12034087 Ry
     xc contribution           =     -12.28153102 Ry
     ewald contribution        =     -16.67131386 Ry

     convergence has been achieved in   6 iterations

     Forces acting on atoms (cartesian axes, Ry/au):

     atom    1 type  1   force =    -0.00021211    0.00000000    0.00000000
     atom    2 type  1   force =     0.00021211    0.00000000    0.00000000

     Total force =     0.000300     Total SCF correction =     0.000000


     Computing stress (Cartesian axis) and pressure

          total   stress  (Ry/bohr**3)                   (kbar)     P=       -1.09
  -0.00000686  -0.00000000  -0.00000000           -1.01       -0.00       -0.00
   0.00000000  -0.00000771   0.00000336            0.00       -1.13        0.49
  -0.00000000   0.00000336  -0.00000771           -0.00        0.49       -1.13

     Energy error            =      4.1E-06 Ry
     Gradient error          =      2.1E-04 Ry/Bohr
     Cell gradient error     =      1.1E+00 kbar

     number of scf cycles    =   6
     number of bfgs steps    =   5

     enthalpy           old  =     -22.8401419354 Ry
     enthalpy           new  =     -22.8401460390 Ry

     CASE: enthalpy          _new < enthalpy          _old

     new trust radius        =       0.0017364004 bohr
     new conv_thr            =            1.0E-12 Ry

     new unit-cell volume =    276.13955 a.u.^3 (    40.91966 Ang^3 )
     density =      2.27941 g/cm^3

CELL_PARAMETERS (angstrom)
   0.000000000   2.735159465   2.735159465
   2.734912426   0.000021118   2.735138347
   2.734912426   2.735138347   0.000021118

ATOMIC_POSITIONS (angstrom)
Si               1.3928417245        4.1027391979        4.1027391979
Si               0.0249830549        0.0000000000        0.0000000000



     Writing config-only to output data dir ./pwscf.save/ :
     XML data file
     NEW-OLD atomic charge density approx. for the potential
     New effective cutoffs (rho, wfc):  177.36   44.34

     total cpu time spent up to now is      141.9 secs

     per-process dynamical memory:    32.9 Mb

     Self-consistent Calculation

     iteration #  1     ecut=    45.00 Ry     beta= 0.70
     Davidson diagonalization with overlap
     ethr =  1.00E-06,  avg # of iterations =  2.0

     Threshold (ethr) on eigenvalues was too large:
     Diagonalizing with lowered threshold

     Davidson diagonalization with overlap
     ethr =  1.66E-09,  avg # of iterations =  3.8

     total cpu time spent up to now is      149.9 secs

     total energy              =     -22.84014765 Ry
     estimated scf accuracy    <       0.00000016 Ry

     iteration #  2     ecut=    45.00 Ry     beta= 0.70
     Davidson diagonalization with overlap
     ethr =  1.98E-09,  avg # of iterations =  2.0

     total cpu time spent up to now is      153.1 secs

     total energy              =     -22.84014767 Ry
     estimated scf accuracy    <          2.2E-09 Ry

     iteration #  3     ecut=    45.00 Ry     beta= 0.70
     Davidson diagonalization with overlap
     ethr =  2.76E-11,  avg # of iterations =  2.2

     total cpu time spent up to now is      156.2 secs

     total energy              =     -22.84014767 Ry
     estimated scf accuracy    <          1.9E-10 Ry

     iteration #  4     ecut=    45.00 Ry     beta= 0.70
     Davidson diagonalization with overlap
     ethr =  2.32E-12,  avg # of iterations =  2.3

     total cpu time spent up to now is      160.1 secs

     total energy              =     -22.84014767 Ry
     estimated scf accuracy    <          5.0E-12 Ry

     iteration #  5     ecut=    45.00 Ry     beta= 0.70
     Davidson diagonalization with overlap
     ethr =  1.00E-13,  avg # of iterations =  3.7

     total cpu time spent up to now is      164.4 secs

     total energy              =     -22.84014767 Ry
     estimated scf accuracy    <          1.5E-12 Ry

     iteration #  6     ecut=    45.00 Ry     beta= 0.70
     Davidson diagonalization with overlap
     ethr =  1.00E-13,  avg # of iterations =  1.0

     total cpu time spent up to now is      167.6 secs

     End of self-consistent calculation

     Number of k-points >= 100: set verbosity='high' to print the bands.

     the Fermi energy is     6.2747 ev

!    total energy              =     -22.84014767 Ry
     estimated scf accuracy    <          4.5E-14 Ry
     smearing contrib. (-TS)   =      -0.00000018 Ry
     internal energy E=F+TS    =     -22.84014749 Ry

     The total energy is F=E-TS. E is the sum of the following terms:
     one-electron contribution =       4.99841503 Ry
     hartree contribution      =       1.11963679 Ry
     xc contribution           =     -12.28248426 Ry
     ewald contribution        =     -16.67571505 Ry

     convergence has been achieved in   6 iterations

     Forces acting on atoms (cartesian axes, Ry/au):

     atom    1 type  1   force =    -0.00021015    0.00000000    0.00000000
     atom    2 type  1   force =     0.00021015    0.00000000    0.00000000

     Total force =     0.000297     Total SCF correction =     0.000000


     Computing stress (Cartesian axis) and pressure

          total   stress  (Ry/bohr**3)                   (kbar)     P=       -0.39
  -0.00000232  -0.00000000  -0.00000000           -0.34       -0.00       -0.00
  -0.00000000  -0.00000283  -0.00000108           -0.00       -0.42       -0.16
  -0.00000000  -0.00000108  -0.00000283           -0.00       -0.16       -0.42

     Energy error            =      1.6E-06 Ry
     Gradient error          =      2.1E-04 Ry/Bohr
     Cell gradient error     =      4.2E-01 kbar

     bfgs converged in   7 scf cycles and   6 bfgs steps
     (criteria: energy <  1.0E-05 Ry, force <  5.0E-04 Ry/Bohr, cell <  5.0E-01 kbar)

     End of BFGS Geometry Optimization

     Final enthalpy           =     -22.8401476730 Ry

     File ./pwscf.bfgs deleted, as requested
Begin final coordinates
     new unit-cell volume =    276.13955 a.u.^3 (    40.91966 Ang^3 )
     density =      2.27941 g/cm^3

CELL_PARAMETERS (angstrom)
   0.000000000   2.735159465   2.735159465
   2.734912426   0.000021118   2.735138347
   2.734912426   2.735138347   0.000021118

ATOMIC_POSITIONS (angstrom)
Si               1.3928417245        4.1027391979        4.1027391979
Si               0.0249830549       -0.0000000000       -0.0000000000
End final coordinates



     Writing config-only to output data dir ./pwscf.save/ :
     XML data file

     Final scf calculation at the relaxed structure.
     The G-vectors are recalculated for the final unit cell
     Results may differ from those at the preceding step.

     Parallelization info
     --------------------
     sticks:   dense  smooth     PW     G-vecs:    dense   smooth      PW
     Min         165     165     52                 2797     2797     497
     Max         166     166     54                 2799     2799     498
     Sum         661     661    211                11191    11191    1989

     Using Slab Decomposition



     bravais-lattice index     =            0
     lattice parameter (alat)  =       7.2555  a.u.
     unit-cell volume          =     276.1396 (a.u.)^3
     number of atoms/cell      =            2
     number of atomic types    =            1
     number of electrons       =         8.00
     number of Kohn-Sham states=            8
     kinetic-energy cutoff     =      45.0000  Ry
     charge density cutoff     =     180.0000  Ry
     scf convergence threshold =      1.0E-12
     mixing beta               =       0.7000
     number of iterations used =            8  plain     mixing
     press convergence thresh. =      5.0E-01
     Exchange-correlation= PBE
                           (   1   4   3   4   0   0   0)

     celldm(1)=   7.255506  celldm(2)=   0.000000  celldm(3)=   0.000000
     celldm(4)=   0.000000  celldm(5)=   0.000000  celldm(6)=   0.000000

     crystal axes: (cart. coord. in units of alat)
               a(1) = (   0.000000   0.712383   0.712383 )  
               a(2) = (   0.712319   0.000006   0.712378 )  
               a(3) = (   0.712319   0.712378   0.000006 )  

     reciprocal axes: (cart. coord. in units 2 pi/alat)
               b(1) = ( -0.701933  0.701869  0.701869 )  
               b(2) = (  0.701933 -0.701880  0.701880 )  
               b(3) = (  0.701933  0.701880 -0.701880 )  


     PseudoPot. # 1 for Si read from file:
     ./Si.upf
     MD5 check sum: 0b0bb1205258b0d07b9f9672cf965d36
     Pseudo is Ultrasoft + core correction, Zval =  4.0
     Generated using "atomic" code by A. Dal Corso  v.5.1
     Using radial grid of 1141 points,  6 beta functions with: 
                l(1) =   0
                l(2) =   0
                l(3) =   1
                l(4) =   1
                l(5) =   2
                l(6) =   2
     Q(r) pseudized with 0 coefficients 


     atomic species   valence    mass     pseudopotential
     Si                4.00    28.08500     Si( 1.00)

      4 Sym. Ops. (no inversion) found



   Cartesian axes

     site n.     atom                  positions (alat units)
         1        Si     tau(   1) = (   0.3627713   1.0685752   1.0685752  )
         2        Si     tau(   2) = (   0.0065069  -0.0000000  -0.0000000  )

     number of k points=   280  Gaussian smearing, width (Ry)=  0.0100

     Number of k-points >= 100: set verbosity='high' to print them.

     Dense  grid:    11191 G-vectors     FFT dimensions: (  32,  32,  32)

     Estimated max dynamical RAM per process >      24.75 MB

     Estimated total dynamical RAM >      98.99 MB

     Initial potential from superposition of free atoms

     starting charge       7.9989, renormalised to       8.0000
     Starting wfcs are    8 randomized atomic wfcs

     total cpu time spent up to now is      171.3 secs

     per-process dynamical memory:    32.9 Mb

     Self-consistent Calculation

     iteration #  1     ecut=    45.00 Ry     beta= 0.70
     Davidson diagonalization with overlap
     c_bands:  1 eigenvalues not converged
     c_bands:  1 eigenvalues not converged
     c_bands:  1 eigenvalues not converged
     c_bands:  1 eigenvalues not converged
     c_bands:  1 eigenvalues not converged
     c_bands:  1 eigenvalues not converged
     c_bands:  1 eigenvalues not converged
     c_bands:  1 eigenvalues not converged
     c_bands:  1 eigenvalues not converged
     c_bands:  1 eigenvalues not converged
     c_bands:  1 eigenvalues not converged
     c_bands:  1 eigenvalues not converged
     c_bands:  1 eigenvalues not converged
     c_bands:  1 eigenvalues not converged
     c_bands:  1 eigenvalues not converged
     c_bands:  1 eigenvalues not converged
     c_bands:  1 eigenvalues not converged
     c_bands:  1 eigenvalues not converged
     c_bands:  1 eigenvalues not converged
     c_bands:  1 eigenvalues not converged
     c_bands:  1 eigenvalues not converged
     c_bands:  1 eigenvalues not converged
     c_bands:  1 eigenvalues not converged
     c_bands:  1 eigenvalues not converged
     c_bands:  1 eigenvalues not converged
     c_bands:  1 eigenvalues not converged
     c_bands:  1 eigenvalues not converged
     c_bands:  1 eigenvalues not converged
     c_bands:  1 eigenvalues not converged
     c_bands:  1 eigenvalues not converged
     c_bands:  1 eigenvalues not converged
     c_bands:  1 eigenvalues not converged
     c_bands:  2 eigenvalues not converged
     c_bands:  3 eigenvalues not converged
     c_bands:  2 eigenvalues not converged
     c_bands:  1 eigenvalues not converged
     c_bands:  1 eigenvalues not converged
     c_bands:  1 eigenvalues not converged
     c_bands:  1 eigenvalues not converged
     c_bands:  1 eigenvalues not converged
     c_bands:  1 eigenvalues not converged
     c_bands:  1 eigenvalues not converged
     c_bands:  1 eigenvalues not converged
     c_bands:  1 eigenvalues not converged
     c_bands:  1 eigenvalues not converged
     c_bands:  1 eigenvalues not converged
     c_bands:  1 eigenvalues not converged
     c_bands:  1 eigenvalues not converged
     ethr =  1.00E-06,  avg # of iterations = 16.6

     total cpu time spent up to now is      186.2 secs

     total energy              =     -22.83787828 Ry
     estimated scf accuracy    <       0.05471050 Ry

     iteration #  2     ecut=    45.00 Ry     beta= 0.70
     Davidson diagonalization with overlap
     ethr =  6.84E-04,  avg # of iterations =  1.0

     total cpu time spent up to now is      189.4 secs

     total energy              =     -22.84004657 Ry
     estimated scf accuracy    <       0.00210725 Ry

     iteration #  3     ecut=    45.00 Ry     beta= 0.70
     Davidson diagonalization with overlap
     ethr =  2.63E-05,  avg # of iterations =  1.2

     total cpu time spent up to now is      192.4 secs

     total energy              =     -22.84014175 Ry
     estimated scf accuracy    <       0.00003987 Ry

     iteration #  4     ecut=    45.00 Ry     beta= 0.70
     Davidson diagonalization with overlap
     ethr =  4.98E-07,  avg # of iterations =  2.8

     total cpu time spent up to now is      196.5 secs

     total energy              =     -22.84015320 Ry
     estimated scf accuracy    <       0.00000092 Ry

     iteration #  5     ecut=    45.00 Ry     beta= 0.70
     Davidson diagonalization with overlap
     ethr =  1.16E-08,  avg # of iterations =  2.4

     total cpu time spent up to now is      200.5 secs

     total energy              =     -22.84015361 Ry
     estimated scf accuracy    <       0.00000005 Ry

     iteration #  6     ecut=    45.00 Ry     beta= 0.70
     Davidson diagonalization with overlap
     ethr =  5.97E-10,  avg # of iterations =  2.9

     total cpu time spent up to now is      204.4 secs

     total energy              =     -22.84015363 Ry
     estimated scf accuracy    <          2.5E-10 Ry

     iteration #  7     ecut=    45.00 Ry     beta= 0.70
     Davidson diagonalization with overlap
     ethr =  3.17E-12,  avg # of iterations =  4.0

     total cpu time spent up to now is      208.9 secs

     total energy              =     -22.84015363 Ry
     estimated scf accuracy    <          2.1E-11 Ry

     iteration #  8     ecut=    45.00 Ry     beta= 0.70
     Davidson diagonalization with overlap
     ethr =  2.68E-13,  avg # of iterations =  1.2

     total cpu time spent up to now is      211.9 secs

     total energy              =     -22.84015363 Ry
     estimated scf accuracy    <          1.8E-12 Ry

     iteration #  9     ecut=    45.00 Ry     beta= 0.70
     Davidson diagonalization with overlap
     ethr =  1.00E-13,  avg # of iterations =  1.0

     total cpu time spent up to now is      214.8 secs

     End of self-consistent calculation

     Number of k-points >= 100: set verbosity='high' to print the bands.

     the Fermi energy is     6.2747 ev

!    total energy              =     -22.84015363 Ry
     estimated scf accuracy    <          5.0E-14 Ry
     smearing contrib. (-TS)   =      -0.00000018 Ry
     internal energy E=F+TS    =     -22.84015345 Ry

     The total energy is F=E-TS. E is the sum of the following terms:
     one-electron contribution =       4.99841090 Ry
     hartree contribution      =       1.11963532 Ry
     xc contribution           =     -12.28248462 Ry
     ewald contribution        =     -16.67571505 Ry

     convergence has been achieved in   9 iterations

     Forces acting on atoms (cartesian axes, Ry/au):

     atom    1 type  1   force =    -0.00021015   -0.00000000    0.00000000
     atom    2 type  1   force =     0.00021015    0.00000000   -0.00000000

     Total force =     0.000297     Total SCF correction =     0.000000


     Computing stress (Cartesian axis) and pressure

          total   stress  (Ry/bohr**3)                   (kbar)     P=       -0.40
  -0.00000235  -0.00000000  -0.00000000           -0.35       -0.00       -0.00
  -0.00000000  -0.00000286  -0.00000108           -0.00       -0.42       -0.16
  -0.00000000  -0.00000108  -0.00000286           -0.00       -0.16       -0.42


     Writing all to output data dir ./pwscf.save/ :
     XML data file, charge density, pseudopotentials, collected wavefunctions

     init_run     :      2.59s CPU      2.81s WALL (       2 calls)
     electrons    :    179.35s CPU    196.09s WALL (       8 calls)
     update_pot   :      0.06s CPU      0.06s WALL (       6 calls)
     forces       :      2.64s CPU      2.77s WALL (       8 calls)
     stress       :     14.33s CPU     14.85s WALL (       8 calls)

     Called by init_run:
     wfcinit      :      1.96s CPU      2.15s WALL (       2 calls)
     potinit      :      0.04s CPU      0.04s WALL (       2 calls)
     hinit0       :      0.50s CPU      0.51s WALL (       2 calls)

     Called by electrons:
     c_bands      :    151.93s CPU    166.17s WALL (      56 calls)
     sum_band     :     26.17s CPU     28.61s WALL (      56 calls)
     v_of_rho     :      0.39s CPU      0.41s WALL (      59 calls)
     newd         :      0.98s CPU      1.00s WALL (      59 calls)
     mix_rho      :      0.04s CPU      0.04s WALL (      56 calls)

     Called by c_bands:
     init_us_2    :      8.29s CPU      9.04s WALL (   36400 calls)
     cegterg      :    137.90s CPU    150.99s WALL (   15680 calls)

     Called by *egterg:
     cdiaghg      :      8.11s CPU      8.95s WALL (   57701 calls)
     h_psi        :    109.95s CPU    120.36s WALL (   61341 calls)
     s_psi        :      3.43s CPU      3.82s WALL (   61341 calls)
     g_psi        :      1.68s CPU      1.85s WALL (   45101 calls)

     Called by h_psi:
     h_psi:calbec :      7.44s CPU      8.19s WALL (   61341 calls)
     vloc_psi     :     97.69s CPU    106.85s WALL (   61341 calls)
                                        0.00s GPU  (   61341 calls)
     add_vuspsi   :      3.74s CPU      4.17s WALL (   61341 calls)

     General routines
     calbec       :     14.93s CPU     16.17s WALL (  115101 calls)
     fft          :      0.31s CPU      0.32s WALL (     860 calls)
     ffts         :      0.01s CPU      0.01s WALL (      56 calls)
     fftw         :    100.52s CPU    109.85s WALL (  827120 calls)

     Parallel routines

     PWSCF        :   3m19.70s CPU   3m37.49s WALL


   This run was terminated on:  15: 3:48   2Sep2026            

=------------------------------------------------------------------------------=
   JOB DONE.
=------------------------------------------------------------------------------=
