
     Program PWSCF v.7.5 starts on  2Sep2026 at 13:30:37 

     This program is part of the open-source Quantum ESPRESSO suite
     for quantum simulation of materials; please cite
         "P. Giannozzi et al., J. Phys.:Condens. Matter 21 395502 (2009);
         "P. Giannozzi et al., J. Phys.:Condens. Matter 29 465901 (2017);
         "P. Giannozzi et al., J. Chem. Phys. 152 154105 (2020);
          URL http://www.quantum-espresso.org", 
     in publications or presentations arising from this work. More details at
     http://www.quantum-espresso.org/quote

     Parallel version (MPI & OpenMP), running on       8 processor cores
     Number of MPI processes:                 4
     Threads/MPI process:                     2

     MPI processes distributed on     1 nodes
     6996 MiB available memory on the printing compute node when the environment starts

     Waiting for input...
     Reading input from standard input

     Current dimensions of program PWSCF are:
     Max number of different atomic species (ntypx) = 10
     Max number of k-points (npk) =  40000
     Max angular momentum in pseudopotentials (lmaxx) =  4
     Message from routine setup:
     using ibrav=0 with symmetry is DISCOURAGED, use correct ibrav instead

     R & G space division:  proc/nbgrp/npool/nimage =       4
     Subspace diagonalization in iterative solution of the eigenvalue problem:
     a serial algorithm will be used


     Parallelization info
     --------------------
     sticks:   dense  smooth     PW     G-vecs:    dense   smooth      PW
     Min         214     214     64                 4221     4221     709
     Max         215     215     67                 4224     4224     710
     Sum         859     859    265                16889    16889    2837

     Using Slab Decomposition



     bravais-lattice index     =            0
     lattice parameter (alat)  =       7.2555  a.u.
     unit-cell volume          =     270.0773 (a.u.)^3
     number of atoms/cell      =            2
     number of atomic types    =            1
     number of electrons       =         8.00
     number of Kohn-Sham states=            8
     kinetic-energy cutoff     =      60.0000  Ry
     charge density cutoff     =     240.0000  Ry
     scf convergence threshold =      1.0E-10
     mixing beta               =       0.7000
     number of iterations used =            8  plain     mixing
     Exchange-correlation= PBE
                           (   1   4   3   4   0   0   0)

     celldm(1)=   7.255506  celldm(2)=   0.000000  celldm(3)=   0.000000
     celldm(4)=   0.000000  celldm(5)=   0.000000  celldm(6)=   0.000000

     crystal axes: (cart. coord. in units of alat)
               a(1) = (   0.000000   0.707107   0.707107 )  
               a(2) = (   0.707107   0.000000   0.707107 )  
               a(3) = (   0.707107   0.707107   0.000000 )  

     reciprocal axes: (cart. coord. in units 2 pi/alat)
               b(1) = ( -0.707107  0.707107  0.707107 )  
               b(2) = (  0.707107 -0.707107  0.707107 )  
               b(3) = (  0.707107  0.707107 -0.707107 )  


     PseudoPot. # 1 for Si read from file:
     ./Si.upf
     MD5 check sum: 0b0bb1205258b0d07b9f9672cf965d36
     Pseudo is Ultrasoft + core correction, Zval =  4.0
     Generated using "atomic" code by A. Dal Corso  v.5.1
     Using radial grid of 1141 points,  6 beta functions with: 
                l(1) =   0
                l(2) =   0
                l(3) =   1
                l(4) =   1
                l(5) =   2
                l(6) =   2
     Q(r) pseudized with 0 coefficients 


     atomic species   valence    mass     pseudopotential
     Si                4.00    28.08500     Si( 1.00)

     48 Sym. Ops., with inversion, found (24 have fractional translation)



   Cartesian axes

     site n.     atom                  positions (alat units)
         1        Si     tau(   1) = (   0.3535534   1.0606602   1.0606602  )
         2        Si     tau(   2) = (   0.0000000   0.0000000   0.0000000  )

     number of k points=   120  Gaussian smearing, width (Ry)=  0.0100

     Number of k-points >= 100: set verbosity='high' to print them.

     Dense  grid:    16889 G-vectors     FFT dimensions: (  36,  36,  36)

     Estimated max dynamical RAM per process >      24.88 MB

     Estimated total dynamical RAM >      99.50 MB

     Initial potential from superposition of free atoms

     starting charge       7.9989, renormalised to       8.0000
     Starting wfcs are    8 randomized atomic wfcs

     total cpu time spent up to now is       16.4 secs

     per-process dynamical memory:    21.0 Mb

     Self-consistent Calculation

     iteration #  1     ecut=    60.00 Ry     beta= 0.70
     Davidson diagonalization with overlap
     ethr =  1.00E-02,  avg # of iterations =  4.3

     Threshold (ethr) on eigenvalues was too large:
     Diagonalizing with lowered threshold

     Davidson diagonalization with overlap
     ethr =  6.45E-04,  avg # of iterations =  1.9

     total cpu time spent up to now is      151.5 secs

     total energy              =     -22.83733611 Ry
     estimated scf accuracy    <       0.05546034 Ry

     iteration #  2     ecut=    60.00 Ry     beta= 0.70
     Davidson diagonalization with overlap
     ethr =  6.93E-04,  avg # of iterations =  1.0

     total cpu time spent up to now is      197.4 secs

     total energy              =     -22.83966912 Ry
     estimated scf accuracy    <       0.00219392 Ry

     iteration #  3     ecut=    60.00 Ry     beta= 0.70
     Davidson diagonalization with overlap
     ethr =  2.74E-05,  avg # of iterations =  5.2

     total cpu time spent up to now is      278.3 secs

     total energy              =     -22.83980951 Ry
     estimated scf accuracy    <       0.00004836 Ry

     iteration #  4     ecut=    60.00 Ry     beta= 0.70
     Davidson diagonalization with overlap
     ethr =  6.04E-07,  avg # of iterations =  4.3

     total cpu time spent up to now is      352.8 secs

     total energy              =     -22.83981807 Ry
     estimated scf accuracy    <       0.00000010 Ry

     iteration #  5     ecut=    60.00 Ry     beta= 0.70
     Davidson diagonalization with overlap
     ethr =  1.25E-09,  avg # of iterations =  3.7

     total cpu time spent up to now is      428.4 secs

     total energy              =     -22.83981831 Ry
     estimated scf accuracy    <          6.2E-09 Ry

     iteration #  6     ecut=    60.00 Ry     beta= 0.70
     Davidson diagonalization with overlap
     ethr =  7.71E-11,  avg # of iterations =  2.1

     total cpu time spent up to now is      491.8 secs

     End of self-consistent calculation

     Number of k-points >= 100: set verbosity='high' to print the bands.

     the Fermi energy is     6.4896 ev

!    total energy              =     -22.83981831 Ry
     estimated scf accuracy    <          5.5E-11 Ry
     smearing contrib. (-TS)   =      -0.00000020 Ry
     internal energy E=F+TS    =     -22.83981811 Ry

     The total energy is F=E-TS. E is the sum of the following terms:
     one-electron contribution =       5.16923373 Ry
     hartree contribution      =       1.09993307 Ry
     xc contribution           =     -12.30942240 Ry
     ewald contribution        =     -16.79956251 Ry

     convergence has been achieved in   6 iterations

     Forces acting on atoms (cartesian axes, Ry/au):

     atom    1 type  1   force =     0.00000000    0.00000000   -0.00000000
     atom    2 type  1   force =     0.00000000    0.00000000    0.00000000

     Total force =     0.000000     Total SCF correction =     0.000000


     Computing stress (Cartesian axis) and pressure

          total   stress  (Ry/bohr**3)                   (kbar)     P=       20.32
   0.00013813   0.00000000  -0.00000000           20.32        0.00       -0.00
   0.00000000   0.00013813  -0.00000000            0.00       20.32       -0.00
  -0.00000000  -0.00000000   0.00013813           -0.00       -0.00       20.32


     Writing all to output data dir ./pwscf.save/ :
     XML data file, charge density, pseudopotentials, collected wavefunctions

     init_run     :     31.47s CPU     16.30s WALL (       1 calls)
     electrons    :    930.27s CPU    475.39s WALL (       1 calls)
     forces       :      7.28s CPU      3.69s WALL (       1 calls)
     stress       :      5.88s CPU      3.01s WALL (       1 calls)

     Called by init_run:
     wfcinit      :     31.01s CPU     15.85s WALL (       1 calls)
     potinit      :      0.02s CPU      0.02s WALL (       1 calls)
     hinit0       :      0.37s CPU      0.36s WALL (       1 calls)

     Called by electrons:
     c_bands      :    753.91s CPU    385.71s WALL (       7 calls)
     sum_band     :    175.08s CPU     88.95s WALL (       7 calls)
     v_of_rho     :      0.71s CPU      0.37s WALL (       7 calls)
     newd         :      0.36s CPU      0.25s WALL (       7 calls)
     mix_rho      :      0.20s CPU      0.10s WALL (       7 calls)

     Called by c_bands:
     init_us_2    :      2.00s CPU      1.21s WALL (    2040 calls)
     cegterg      :    749.45s CPU    383.20s WALL (     840 calls)

     Called by *egterg:
     cdiaghg      :      2.54s CPU      1.34s WALL (    3421 calls)
     h_psi        :    669.37s CPU    341.76s WALL (    3661 calls)
     s_psi        :     14.07s CPU      7.22s WALL (    3661 calls)
     g_psi        :      0.26s CPU      0.16s WALL (    2701 calls)

     Called by h_psi:
     h_psi:calbec :     32.80s CPU     16.11s WALL (    3661 calls)
     vloc_psi     :    609.76s CPU    312.60s WALL (    3661 calls)
                                        0.00s GPU  (    3661 calls)
     add_vuspsi   :      3.89s CPU      1.95s WALL (    3661 calls)

     General routines
     calbec       :     46.12s CPU     22.89s WALL (    6541 calls)
     fft          :      1.23s CPU      0.71s WALL (     103 calls)
     ffts         :      0.16s CPU      0.08s WALL (       7 calls)
     fftw         :    678.55s CPU    348.35s WALL (   45468 calls)

     Parallel routines

     PWSCF        :  16m15.89s CPU   8m19.01s WALL


   This run was terminated on:  13:38:56   2Sep2026            

=------------------------------------------------------------------------------=
   JOB DONE.
=------------------------------------------------------------------------------=
