
     Program PWSCF v.7.5 starts on  1Sep2026 at 21:20:33 

     This program is part of the open-source Quantum ESPRESSO suite
     for quantum simulation of materials; please cite
         "P. Giannozzi et al., J. Phys.:Condens. Matter 21 395502 (2009);
         "P. Giannozzi et al., J. Phys.:Condens. Matter 29 465901 (2017);
         "P. Giannozzi et al., J. Chem. Phys. 152 154105 (2020);
          URL http://www.quantum-espresso.org", 
     in publications or presentations arising from this work. More details at
     http://www.quantum-espresso.org/quote

     Parallel version (MPI & OpenMP), running on       8 processor cores
     Number of MPI processes:                 4
     Threads/MPI process:                     2

     MPI processes distributed on     1 nodes
     7129 MiB available memory on the printing compute node when the environment starts

     Reading input from espresso.pwi
Warning: card &CELL ignored
Warning: card &FCP ignored
Warning: card &RISM ignored

     Current dimensions of program PWSCF are:
     Max number of different atomic species (ntypx) = 10
     Max number of k-points (npk) =  40000
     Max angular momentum in pseudopotentials (lmaxx) =  4
     Message from routine setup:
     using ibrav=0 with symmetry is DISCOURAGED, use correct ibrav instead

     R & G space division:  proc/nbgrp/npool/nimage =       4
     Subspace diagonalization in iterative solution of the eigenvalue problem:
     a serial algorithm will be used


     Parallelization info
     --------------------
     sticks:   dense  smooth     PW     G-vecs:    dense   smooth      PW
     Min         214     214     63                 4221     4221     670
     Max         215     215     64                 4224     4224     673
     Sum         859     859    253                16889    16889    2685

     Using Slab Decomposition



     bravais-lattice index     =            0
     lattice parameter (alat)  =       7.2555  a.u.
     unit-cell volume          =     270.0773 (a.u.)^3
     number of atoms/cell      =            2
     number of atomic types    =            1
     number of electrons       =         8.00
     number of Kohn-Sham states=            8
     kinetic-energy cutoff     =      60.0000  Ry
     charge density cutoff     =     240.0000  Ry
     scf convergence threshold =      1.0E-10
     mixing beta               =       0.7000
     number of iterations used =            8  plain     mixing
     Exchange-correlation= PBE
                           (   1   4   3   4   0   0   0)

     celldm(1)=   7.255506  celldm(2)=   0.000000  celldm(3)=   0.000000
     celldm(4)=   0.000000  celldm(5)=   0.000000  celldm(6)=   0.000000

     crystal axes: (cart. coord. in units of alat)
               a(1) = (   0.000000   0.707107   0.707107 )  
               a(2) = (   0.707107   0.000000   0.707107 )  
               a(3) = (   0.707107   0.707107   0.000000 )  

     reciprocal axes: (cart. coord. in units 2 pi/alat)
               b(1) = ( -0.707107  0.707107  0.707107 )  
               b(2) = (  0.707107 -0.707107  0.707107 )  
               b(3) = (  0.707107  0.707107 -0.707107 )  


     PseudoPot. # 1 for Si read from file:
     ./Si.pbe-n-rrkjus_psl.1.0.0.UPF
     MD5 check sum: 0b0bb1205258b0d07b9f9672cf965d36
     Pseudo is Ultrasoft + core correction, Zval =  4.0
     Generated using "atomic" code by A. Dal Corso  v.5.1
     Using radial grid of 1141 points,  6 beta functions with: 
                l(1) =   0
                l(2) =   0
                l(3) =   1
                l(4) =   1
                l(5) =   2
                l(6) =   2
     Q(r) pseudized with 0 coefficients 


     atomic species   valence    mass     pseudopotential
     Si                4.00    28.08500     Si( 1.00)

     48 Sym. Ops., with inversion, found (24 have fractional translation)



   Cartesian axes

     site n.     atom                  positions (alat units)
         1        Si     tau(   1) = (   0.3535534   1.0606602   1.0606602  )
         2        Si     tau(   2) = (   0.0000000   0.0000000   0.0000000  )

     number of k points=     3  Gaussian smearing, width (Ry)=  0.0100
                       cart. coord. in units 2pi/alat
        k(    1) = (   0.0000000   0.0000000   0.0000000), wk =   0.2500000
        k(    2) = (  -0.3535534  -0.3535534   0.3535534), wk =   1.0000000
        k(    3) = (  -0.7071068   0.0000000   0.0000000), wk =   0.7500000

     Dense  grid:    16889 G-vectors     FFT dimensions: (  36,  36,  36)

     Estimated max dynamical RAM per process >      16.47 MB

     Estimated total dynamical RAM >      65.87 MB

     Initial potential from superposition of free atoms

     starting charge       7.9989, renormalised to       8.0000
     Starting wfcs are    8 randomized atomic wfcs

     total cpu time spent up to now is        2.6 secs

     per-process dynamical memory:    13.1 Mb

     Self-consistent Calculation

     iteration #  1     ecut=    60.00 Ry     beta= 0.70
     Davidson diagonalization with overlap
     ethr =  1.00E-02,  avg # of iterations =  3.3

     total cpu time spent up to now is        4.5 secs

     total energy              =     -22.64660865 Ry
     estimated scf accuracy    <       0.09833141 Ry

     iteration #  2     ecut=    60.00 Ry     beta= 0.70
     Davidson diagonalization with overlap
     ethr =  1.23E-03,  avg # of iterations =  1.0

     total cpu time spent up to now is        5.8 secs

     total energy              =     -22.65142264 Ry
     estimated scf accuracy    <       0.00519894 Ry

     iteration #  3     ecut=    60.00 Ry     beta= 0.70
     Davidson diagonalization with overlap
     ethr =  6.50E-05,  avg # of iterations =  3.3

     total cpu time spent up to now is        7.6 secs

     total energy              =     -22.65190324 Ry
     estimated scf accuracy    <       0.00007354 Ry

     iteration #  4     ecut=    60.00 Ry     beta= 0.70
     Davidson diagonalization with overlap
     ethr =  9.19E-07,  avg # of iterations =  3.0

     total cpu time spent up to now is        9.4 secs

     total energy              =     -22.65193185 Ry
     estimated scf accuracy    <       0.00000021 Ry

     iteration #  5     ecut=    60.00 Ry     beta= 0.70
     Davidson diagonalization with overlap
     ethr =  2.67E-09,  avg # of iterations =  4.0

     total cpu time spent up to now is       11.4 secs

     total energy              =     -22.65193260 Ry
     estimated scf accuracy    <       0.00000002 Ry

     iteration #  6     ecut=    60.00 Ry     beta= 0.70
     Davidson diagonalization with overlap
     ethr =  2.73E-10,  avg # of iterations =  2.0

     total cpu time spent up to now is       12.9 secs

     total energy              =     -22.65193260 Ry
     estimated scf accuracy    <          5.0E-09 Ry

     iteration #  7     ecut=    60.00 Ry     beta= 0.70
     Davidson diagonalization with overlap
     ethr =  6.20E-11,  avg # of iterations =  1.3

     total cpu time spent up to now is       14.3 secs

     End of self-consistent calculation

          k = 0.0000 0.0000 0.0000 (  2109 PWs)   bands (ev):

    -5.5154   6.5064   6.5064   6.5064   8.9486   8.9486   8.9486   9.8938

          k =-0.3536-0.3536 0.3536 (  2120 PWs)   bands (ev):

    -3.1633  -0.5361   5.2769   5.2769   8.0025   9.7111   9.7111  14.1568

          k =-0.7071 0.0000 0.0000 (  2100 PWs)   bands (ev):

    -1.3482  -1.3482   3.5862   3.5862   7.1058   7.1058  16.5592  16.5593

     the Fermi energy is     6.7962 ev

!    total energy              =     -22.65193261 Ry
     estimated scf accuracy    <          1.7E-11 Ry
     smearing contrib. (-TS)   =      -0.00004656 Ry
     internal energy E=F+TS    =     -22.65188605 Ry

     The total energy is F=E-TS. E is the sum of the following terms:
     one-electron contribution =       5.27338107 Ry
     hartree contribution      =       1.26849088 Ry
     xc contribution           =     -12.39419550 Ry
     ewald contribution        =     -16.79956251 Ry

     convergence has been achieved in   7 iterations

     Writing all to output data dir ./pwscf.save/ :
     XML data file, charge density, pseudopotentials, collected wavefunctions

     init_run     :      1.25s CPU      2.42s WALL (       1 calls)
     electrons    :     23.53s CPU     11.71s WALL (       1 calls)

     Called by init_run:
     wfcinit      :      0.75s CPU      1.95s WALL (       1 calls)
     potinit      :      0.03s CPU      0.02s WALL (       1 calls)
     hinit0       :      0.39s CPU      0.38s WALL (       1 calls)

     Called by electrons:
     c_bands      :     16.59s CPU      8.26s WALL (       7 calls)
     sum_band     :      5.42s CPU      2.67s WALL (       7 calls)
     v_of_rho     :      1.09s CPU      0.53s WALL (       8 calls)
     newd         :      0.31s CPU      0.20s WALL (       8 calls)
     mix_rho      :      0.19s CPU      0.09s WALL (       7 calls)

     Called by c_bands:
     init_us_2    :      0.02s CPU      0.02s WALL (      45 calls)
     cegterg      :     16.51s CPU      8.22s WALL (      21 calls)

     Called by *egterg:
     cdiaghg      :      0.03s CPU      0.02s WALL (      75 calls)
     h_psi        :     15.19s CPU      9.11s WALL (      78 calls)
     s_psi        :      0.11s CPU      0.06s WALL (      78 calls)
     g_psi        :      0.00s CPU      0.00s WALL (      54 calls)

     Called by h_psi:
     h_psi:calbec :      0.60s CPU      0.28s WALL (      78 calls)
     vloc_psi     :     14.08s CPU      8.59s WALL (      78 calls)
                                        0.00s GPU  (      78 calls)
     add_vuspsi   :      0.04s CPU      0.02s WALL (      78 calls)

     General routines
     calbec       :      0.76s CPU      0.36s WALL (      99 calls)
     fft          :      1.21s CPU      0.68s WALL (      88 calls)
     ffts         :      0.14s CPU      0.07s WALL (       7 calls)
     fftw         :     15.70s CPU      9.32s WALL (    1124 calls)

     Parallel routines

     PWSCF        :     25.03s CPU     14.32s WALL


   This run was terminated on:  21:20:47   1Sep2026            

=------------------------------------------------------------------------------=
   JOB DONE.
=------------------------------------------------------------------------------=
