
     Program PWSCF v.7.5 starts on  1Sep2026 at 20:27:25 

     This program is part of the open-source Quantum ESPRESSO suite
     for quantum simulation of materials; please cite
         "P. Giannozzi et al., J. Phys.:Condens. Matter 21 395502 (2009);
         "P. Giannozzi et al., J. Phys.:Condens. Matter 29 465901 (2017);
         "P. Giannozzi et al., J. Chem. Phys. 152 154105 (2020);
          URL http://www.quantum-espresso.org", 
     in publications or presentations arising from this work. More details at
     http://www.quantum-espresso.org/quote

     Parallel version (MPI & OpenMP), running on       8 processor cores
     Number of MPI processes:                 4
     Threads/MPI process:                     2

     MPI processes distributed on     1 nodes
     7336 MiB available memory on the printing compute node when the environment starts

     Waiting for input...
     Reading input from standard input

     Current dimensions of program PWSCF are:
     Max number of different atomic species (ntypx) = 10
     Max number of k-points (npk) =  40000
     Max angular momentum in pseudopotentials (lmaxx) =  4
     Message from routine setup:
     using ibrav=0 with symmetry is DISCOURAGED, use correct ibrav instead

     R & G space division:  proc/nbgrp/npool/nimage =       4
     Subspace diagonalization in iterative solution of the eigenvalue problem:
     a serial algorithm will be used


     Parallelization info
     --------------------
     sticks:   dense  smooth     PW     G-vecs:    dense   smooth      PW
     Min         108     108     31                 1495     1495     241
     Max         109     109     32                 1498     1498     242
     Sum         433     433    127                 5985     5985     965

     Using Slab Decomposition



     bravais-lattice index     =            0
     lattice parameter (alat)  =       7.2555  a.u.
     unit-cell volume          =     270.0773 (a.u.)^3
     number of atoms/cell      =            2
     number of atomic types    =            1
     number of electrons       =         8.00
     number of Kohn-Sham states=            8
     kinetic-energy cutoff     =      30.0000  Ry
     charge density cutoff     =     120.0000  Ry
     scf convergence threshold =      1.0E-10
     mixing beta               =       0.7000
     number of iterations used =            8  plain     mixing
     Exchange-correlation= PBE
                           (   1   4   3   4   0   0   0)

     celldm(1)=   7.255506  celldm(2)=   0.000000  celldm(3)=   0.000000
     celldm(4)=   0.000000  celldm(5)=   0.000000  celldm(6)=   0.000000

     crystal axes: (cart. coord. in units of alat)
               a(1) = (   0.000000   0.707107   0.707107 )  
               a(2) = (   0.707107   0.000000   0.707107 )  
               a(3) = (   0.707107   0.707107   0.000000 )  

     reciprocal axes: (cart. coord. in units 2 pi/alat)
               b(1) = ( -0.707107  0.707107  0.707107 )  
               b(2) = (  0.707107 -0.707107  0.707107 )  
               b(3) = (  0.707107  0.707107 -0.707107 )  


     PseudoPot. # 1 for Si read from file:
     ./Si.pbe-n-rrkjus_psl.1.0.0.UPF
     MD5 check sum: 0b0bb1205258b0d07b9f9672cf965d36
     Pseudo is Ultrasoft + core correction, Zval =  4.0
     Generated using "atomic" code by A. Dal Corso  v.5.1
     Using radial grid of 1141 points,  6 beta functions with: 
                l(1) =   0
                l(2) =   0
                l(3) =   1
                l(4) =   1
                l(5) =   2
                l(6) =   2
     Q(r) pseudized with 0 coefficients 


     atomic species   valence    mass     pseudopotential
     Si                4.00    28.08500     Si( 1.00)

     48 Sym. Ops., with inversion, found (24 have fractional translation)



   Cartesian axes

     site n.     atom                  positions (alat units)
         1        Si     tau(   1) = (   0.3535534   1.0606602   1.0606602  )
         2        Si     tau(   2) = (   0.0000000   0.0000000   0.0000000  )

     number of k points=     3  Gaussian smearing, width (Ry)=  0.0100
                       cart. coord. in units 2pi/alat
        k(    1) = (   0.0000000   0.0000000   0.0000000), wk =   0.2500000
        k(    2) = (  -0.3535534  -0.3535534   0.3535534), wk =   1.0000000
        k(    3) = (  -0.7071068   0.0000000   0.0000000), wk =   0.7500000

     Dense  grid:     5985 G-vectors     FFT dimensions: (  32,  32,  32)

     Estimated max dynamical RAM per process >       6.55 MB

     Estimated total dynamical RAM >      26.22 MB

     Check: negative core charge=   -0.000003

     Initial potential from superposition of free atoms

     starting charge       7.9989, renormalised to       8.0000
     Starting wfcs are    8 randomized atomic wfcs

     total cpu time spent up to now is        0.5 secs

     per-process dynamical memory:    10.2 Mb

     Self-consistent Calculation

     iteration #  1     ecut=    30.00 Ry     beta= 0.70
     Davidson diagonalization with overlap
     ethr =  1.00E-02,  avg # of iterations =  3.0

     total cpu time spent up to now is        0.8 secs

     total energy              =     -22.64638898 Ry
     estimated scf accuracy    <       0.09904646 Ry

     iteration #  2     ecut=    30.00 Ry     beta= 0.70
     Davidson diagonalization with overlap
     ethr =  1.24E-03,  avg # of iterations =  1.0

     total cpu time spent up to now is        1.1 secs

     total energy              =     -22.65122971 Ry
     estimated scf accuracy    <       0.00510891 Ry

     iteration #  3     ecut=    30.00 Ry     beta= 0.70
     Davidson diagonalization with overlap
     ethr =  6.39E-05,  avg # of iterations =  3.3

     total cpu time spent up to now is        1.5 secs

     total energy              =     -22.65167147 Ry
     estimated scf accuracy    <       0.00007618 Ry

     iteration #  4     ecut=    30.00 Ry     beta= 0.70
     Davidson diagonalization with overlap
     ethr =  9.52E-07,  avg # of iterations =  4.0

     total cpu time spent up to now is        2.0 secs

     total energy              =     -22.65169197 Ry
     estimated scf accuracy    <       0.00000016 Ry

     iteration #  5     ecut=    30.00 Ry     beta= 0.70
     Davidson diagonalization with overlap
     ethr =  2.03E-09,  avg # of iterations =  3.7

     total cpu time spent up to now is        2.3 secs

     total energy              =     -22.65169248 Ry
     estimated scf accuracy    <          7.5E-09 Ry

     iteration #  6     ecut=    30.00 Ry     beta= 0.70
     Davidson diagonalization with overlap
     ethr =  9.36E-11,  avg # of iterations =  2.7

     total cpu time spent up to now is        2.6 secs

     total energy              =     -22.65169249 Ry
     estimated scf accuracy    <          7.0E-10 Ry

     iteration #  7     ecut=    30.00 Ry     beta= 0.70
     Davidson diagonalization with overlap
     ethr =  8.80E-12,  avg # of iterations =  2.3

     total cpu time spent up to now is        2.9 secs

     End of self-consistent calculation

          k = 0.0000 0.0000 0.0000 (   749 PWs)   bands (ev):

    -5.5146   6.5075   6.5075   6.5075   8.9497   8.9497   8.9497   9.8948

          k =-0.3536-0.3536 0.3536 (   754 PWs)   bands (ev):

    -3.1624  -0.5354   5.2777   5.2777   8.0037   9.7121   9.7121  14.1577

          k =-0.7071 0.0000 0.0000 (   740 PWs)   bands (ev):

    -1.3473  -1.3473   3.5869   3.5869   7.1068   7.1068  16.5606  16.5606

     the Fermi energy is     6.7973 ev

!    total energy              =     -22.65169249 Ry
     estimated scf accuracy    <          1.3E-11 Ry
     smearing contrib. (-TS)   =      -0.00004658 Ry
     internal energy E=F+TS    =     -22.65164591 Ry

     The total energy is F=E-TS. E is the sum of the following terms:
     one-electron contribution =       5.27350965 Ry
     hartree contribution      =       1.26844178 Ry
     xc contribution           =     -12.39403480 Ry
     ewald contribution        =     -16.79956254 Ry

     convergence has been achieved in   7 iterations

     Writing all to output data dir ./pwscf.save/ :
     XML data file, charge density, pseudopotentials, collected wavefunctions

     init_run     :      0.54s CPU      0.39s WALL (       1 calls)
     electrons    :      4.75s CPU      2.37s WALL (       1 calls)

     Called by init_run:
     wfcinit      :      0.25s CPU      0.12s WALL (       1 calls)
     potinit      :      0.02s CPU      0.01s WALL (       1 calls)
     hinit0       :      0.26s CPU      0.24s WALL (       1 calls)

     Called by electrons:
     c_bands      :      3.17s CPU      1.58s WALL (       7 calls)
     sum_band     :      0.27s CPU      0.14s WALL (       7 calls)
     v_of_rho     :      1.07s CPU      0.53s WALL (       8 calls)
     newd         :      0.18s CPU      0.09s WALL (       8 calls)
     mix_rho      :      0.03s CPU      0.02s WALL (       7 calls)

     Called by c_bands:
     init_us_2    :      0.01s CPU      0.01s WALL (      45 calls)
     cegterg      :      3.16s CPU      1.57s WALL (      21 calls)

     Called by *egterg:
     cdiaghg      :      0.04s CPU      0.02s WALL (      81 calls)
     h_psi        :      3.20s CPU      1.59s WALL (      84 calls)
     s_psi        :      0.04s CPU      0.02s WALL (      84 calls)
     g_psi        :      0.00s CPU      0.00s WALL (      60 calls)

     Called by h_psi:
     h_psi:calbec :      0.09s CPU      0.04s WALL (      84 calls)
     vloc_psi     :      3.04s CPU      1.52s WALL (      84 calls)
                                        0.00s GPU  (      84 calls)
     add_vuspsi   :      0.00s CPU      0.00s WALL (      84 calls)

     General routines
     calbec       :      0.09s CPU      0.04s WALL (     105 calls)
     fft          :      1.05s CPU      0.56s WALL (      88 calls)
     ffts         :      0.01s CPU      0.00s WALL (       7 calls)
     fftw         :      2.81s CPU      1.41s WALL (    1136 calls)

     Parallel routines

     PWSCF        :      5.45s CPU      2.91s WALL


   This run was terminated on:  20:27:28   1Sep2026            

=------------------------------------------------------------------------------=
   JOB DONE.
=------------------------------------------------------------------------------=
