C 
 1.0000000000000000
     4.9326481819000003    0.0000000000000000    0.0000000000000000
    -2.4663246598000002    4.2717983050999999    0.0000000000000000
     0.0000000000000000    0.0000000000000000   15.0000000000000000
 C  
   8
Cartesian
  0.0000000000000000  0.0000000000000000  7.5000000000000000
 -1.2331623300000001  2.1358991530000000  7.5000000000000000
  2.4663240910000002  0.0000000000000000  7.5000000000000000
  1.2331617610000001  2.1358991530000000  7.5000000000000000
 -0.0000001900000000  1.4239326830000001  7.5000000000000000
 -1.2331625190000000  3.5598318359999999  7.5000000000000000
  2.4663237539999998  1.4239326830000001  7.5000000000000000
  1.2331614240000000  3.5598318359999999  7.5000000000000000
