&CONTROL
   verbosity        = 'low'
   tstress          = .true.
   tprnfor          = .true.
   outdir           = './tmp'
   prefix           = 'chg'
   pseudo_dir       = './'
/
&SYSTEM
   ibrav            = 0
   nat              = 9
   ntyp             = 2
   ecutwfc          = 100
   occupations      = 'smearing'
   degauss          = 0.01
   smearing         = 'gauss'
   nspin            = 2
   vdw_corr         = 'DFT-D3'
   dftd3_version    = 4
   starting_magnetization(1) = 0.0
   starting_magnetization(2) = 0.0
/
&ELECTRONS
   conv_thr         = 1e-10
/
&IONS
/
&CELL
/
&FCP
/
&RISM
/
ATOMIC_SPECIES
C  12.011 C.upf
H  1.008 H.upf

K_POINTS automatic
1 1 1  0 0 0

CELL_PARAMETERS angstrom
4.93264818190000 0.00000000000000 0.00000000000000
-2.46632465980000 4.27179830510000 0.00000000000000
0.00000000000000 0.00000000000000 15.00000000000000

ATOMIC_POSITIONS angstrom
C  -0.0158943955 0.0091766472 7.3765661548  
C  -1.2331623300 2.1175458748 7.3765661548  
C  2.4822184865 0.0091766440 7.3765661548  
C  1.2331617610 2.1358991530 7.8394928432  
C  -0.0324520555 1.4051965929 7.4193321819  
C  -1.2331625190 3.5598318360 7.5305343394  
C  2.4987756195 1.4051965924 7.4193321819  
C  1.2331614240 3.5973040360 7.4193321819  
H  1.2331617610 2.1358991530 8.9422778516  

