C  H 
 1.0000000000000000
     4.9326481819000003    0.0000000000000000    0.0000000000000000
    -2.4663246598000002    4.2717983050999999    0.0000000000000000
     0.0000000000000000    0.0000000000000000   15.0000000000000000
 C   H  
   8   1
Cartesian
 -0.0158943955481558  0.0091766471939639  7.3765661548313259
 -1.2331623300000001  2.1175458748061540  7.3765661548313259
  2.4822184865481560  0.0091766439556341  7.3765661548313259
  1.2331617610000001  2.1358991530000000  7.8394928432351643
 -0.0324520554620443  1.4051965928917884  7.4193321818784073
 -1.2331625190000000  3.5598318359999999  7.5305343394025330
  2.4987756194620436  1.4051965924299628  7.4193321818784073
  1.2331614240000000  3.5973040360393984  7.4193321818784073
  1.2331617610000001  2.1358991530000000  8.9422778515759820
