C  H 
 1.0000000000000000
     4.9326481819000003    0.0000000000000000    0.0000000000000000
    -2.4663246598000002    4.2717983050999999    0.0000000000000000
     0.0000000000000000    0.0000000000000000   15.0000000000000000
 C   H  
   8   1
Cartesian
 -0.0159459927693404  0.0092064175417308  7.3767212230369203
 -1.2331623300000001  2.1174863163013247  7.3767212230369203
  2.4822700837693406  0.0092064258732222  7.3767212230369203
  1.2331617610000001  2.1358991530000000  7.8394442170935337
 -0.0324759469242969  1.4051828016484080  7.4192545093017852
 -1.2331625190000000  3.5598318359999999  7.5303919463020277
  2.4987995109242944  1.4051828149773318  7.4192545093017852
  1.2331614240000000  3.5973316130718374  7.4192545093017852
  1.2331617610000001  2.1358991530000000  8.9422367088614969
